3
 generated by VMD
 N        -0.311379       -4.102575       -1.526946
 O         4.109197       -1.968900        2.169885
 H         3.381331       -1.325453        2.030323
3
 generated by VMD
 N        -0.313318       -4.100190       -1.524789
 O         4.106041       -1.964928        2.172307
 H         3.377862       -1.317023        2.036351
3
 generated by VMD
 N        -0.316493       -4.092789       -1.522814
 O         4.101142       -1.959388        2.171484
 H         3.371712       -1.319429        2.050900
3
 generated by VMD
 N        -0.322443       -4.084024       -1.518011
 O         4.091974       -1.952724        2.168242
 H         3.361263       -1.312899        2.061781
3
 generated by VMD
 N        -0.327380       -4.071473       -1.512729
 O         4.078288       -1.944340        2.167655
 H         3.348019       -1.309610        2.069428
3
 generated by VMD
 N        -0.334434       -4.054189       -1.503930
 O         4.063453       -1.937589        2.166414
 H         3.324559       -1.301422        2.071623
3
 generated by VMD
 N        -0.336757       -4.035969       -1.493872
 O         4.046290       -1.931896        2.161731
 H         3.317555       -1.280325        2.069762
3
 generated by VMD
 N        -0.337193       -4.015354       -1.483815
 O         4.026489       -1.920259        2.154502
 H         3.322731       -1.256284        2.066653
3
 generated by VMD
 N        -0.334991       -3.992430       -1.473494
 O         4.008209       -1.909726        2.146359
 H         3.330240       -1.234743        2.041243
3
 generated by VMD
 N        -0.336863       -3.967089       -1.463783
 O         3.989208       -1.898039        2.139267
 H         3.344299       -1.200395        2.019498
3
 generated by VMD
 N        -0.339309       -3.940876       -1.454702
 O         3.967640       -1.885082        2.130671
 H         3.362963       -1.150924        1.988505
3
 generated by VMD
 N        -0.337837       -3.913898       -1.443188
 O         3.941721       -1.870909        2.120288
 H         3.382577       -1.079327        1.961528
3
 generated by VMD
 N        -0.338189       -3.890728       -1.429530
 O         3.910993       -1.854934        2.111330
 H         3.400462       -1.024385        1.942537
3
 generated by VMD
 N        -0.337593       -3.864192       -1.415060
 O         3.874110       -1.841245        2.103674
 H         3.415146       -0.985488        1.910487
3
 generated by VMD
 N        -0.334202       -3.835064       -1.398899
 O         3.833913       -1.822755        2.094145
 H         3.441849       -0.951455        1.888016
3
 generated by VMD
 N        -0.332201       -3.808729       -1.381902
 O         3.795100       -1.802694        2.084678
 H         3.468775       -0.922807        1.875726
3
 generated by VMD
 N        -0.325897       -3.780821       -1.364206
 O         3.754870       -1.782722        2.076543
 H         3.497324       -0.883035        1.865124
3
 generated by VMD
 N        -0.316955       -3.751482       -1.346158
 O         3.711425       -1.761317        2.064000
 H         3.509712       -0.825793        1.861251
3
 generated by VMD
 N        -0.306114       -3.720258       -1.327845
 O         3.666593       -1.740341        2.049120
 H         3.536302       -0.774456        1.848679
3
 generated by VMD
 N        -0.296655       -3.688865       -1.312540
 O         3.622058       -1.720241        2.034743
 H         3.566595       -0.738740        1.849464
3
 generated by VMD
 N        -0.287008       -3.652762       -1.295240
 O         3.580757       -1.695876        2.023444
 H         3.603042       -0.730568        1.845876
3
 generated by VMD
 N        -0.279344       -3.613709       -1.275791
 O         3.536191       -1.671795        2.011468
 H         3.640058       -0.719115        1.839362
3
 generated by VMD
 N        -0.273038       -3.573585       -1.256075
 O         3.494987       -1.647201        1.997502
 H         3.689106       -0.698835        1.831040
3
 generated by VMD
 N        -0.265996       -3.529555       -1.234519
 O         3.452923       -1.622506        1.982958
 H         3.741993       -0.695845        1.819582
3
 generated by VMD
 N        -0.255973       -3.488022       -1.216423
 O         3.409615       -1.598969        1.965912
 H         3.794823       -0.697473        1.804110
3
 generated by VMD
 N        -0.242923       -3.447972       -1.198780
 O         3.365558       -1.574640        1.944757
 H         3.844325       -0.711142        1.796973
3
 generated by VMD
 N        -0.230328       -3.405192       -1.180696
 O         3.321571       -1.547517        1.923497
 H         3.886587       -0.729435        1.789805
3
 generated by VMD
 N        -0.218170       -3.362880       -1.164039
 O         3.277081       -1.518681        1.903007
 H         3.929021       -0.751089        1.777771
3
 generated by VMD
 N        -0.207673       -3.321799       -1.148629
 O         3.234595       -1.486249        1.882157
 H         3.953824       -0.800559        1.775150
3
 generated by VMD
 N        -0.196162       -3.278326       -1.135101
 O         3.189797       -1.452610        1.861210
 H         3.969365       -0.850268        1.770521
3
 generated by VMD
 N        -0.183977       -3.234120       -1.119077
 O         3.146960       -1.418717        1.837323
 H         3.985906       -0.897224        1.765693
3
 generated by VMD
 N        -0.170533       -3.187928       -1.102898
 O         3.100881       -1.383369        1.814262
 H         3.987446       -0.947295        1.747656
3
 generated by VMD
 N        -0.155904       -3.138488       -1.084917
 O         3.054582       -1.347325        1.789009
 H         3.990745       -0.996409        1.731898
3
 generated by VMD
 N        -0.142827       -3.091761       -1.070113
 O         3.007617       -1.310710        1.764074
 H         3.986590       -1.045490        1.714056
3
 generated by VMD
 N        -0.130167       -3.047948       -1.055458
 O         2.962973       -1.275009        1.742572
 H         3.965503       -1.098276        1.703298
3
 generated by VMD
 N        -0.118377       -3.001394       -1.042316
 O         2.919016       -1.236851        1.718357
 H         3.922930       -1.147532        1.692079
3
 generated by VMD
 N        -0.109620       -2.957234       -1.032336
 O         2.875570       -1.197895        1.693852
 H         3.870766       -1.195377        1.690121
3
 generated by VMD
 N        -0.102708       -2.914150       -1.021694
 O         2.831369       -1.159332        1.666016
 H         3.813566       -1.231313        1.681600
3
 generated by VMD
 N        -0.097670       -2.873009       -1.013774
 O         2.788666       -1.118887        1.638413
 H         3.756544       -1.255987        1.671165
3
 generated by VMD
 N        -0.091729       -2.832610       -1.002122
 O         2.744503       -1.079107        1.613632
 H         3.697262       -1.287969        1.656426
3
 generated by VMD
 N        -0.082375       -2.796491       -0.990232
 O         2.701880       -1.037009        1.588860
 H         3.624786       -1.316972        1.645499
3
 generated by VMD
 N        -0.073379       -2.762149       -0.978337
 O         2.659534       -0.989308        1.566069
 H         3.542437       -1.340340        1.634442
3
 generated by VMD
 N        -0.060965       -2.728239       -0.962897
 O         2.614816       -0.940358        1.541389
 H         3.458204       -1.365452        1.626328
3
 generated by VMD
 N        -0.045843       -2.694608       -0.948634
 O         2.569112       -0.893168        1.517265
 H         3.379274       -1.378017        1.626009
3
 generated by VMD
 N        -0.030382       -2.663286       -0.932128
 O         2.523441       -0.847050        1.495495
 H         3.314461       -1.395451        1.626369
3
 generated by VMD
 N        -0.017406       -2.632474       -0.917385
 O         2.476530       -0.797802        1.473595
 H         3.247310       -1.414769        1.616919
3
 generated by VMD
 N        -0.006764       -2.604295       -0.902152
 O         2.431814       -0.745084        1.452330
 H         3.160034       -1.425626        1.605187
3
 generated by VMD
 N         0.005074       -2.575964       -0.890901
 O         2.391464       -0.692669        1.433281
 H         3.059259       -1.437412        1.585594
3
 generated by VMD
 N         0.015751       -2.545516       -0.876306
 O         2.355647       -0.641535        1.415004
 H         2.956930       -1.429024        1.559872
3
 generated by VMD
 N         0.029325       -2.514671       -0.863632
 O         2.321543       -0.590214        1.396788
 H         2.848451       -1.419689        1.549839
3
 generated by VMD
 N         0.043552       -2.483085       -0.849889
 O         2.290123       -0.540096        1.378651
 H         2.739385       -1.392728        1.541074
3
 generated by VMD
 N         0.056373       -2.455732       -0.836047
 O         2.259736       -0.488298        1.360807
 H         2.641759       -1.362821        1.522499
3
 generated by VMD
 N         0.067915       -2.427928       -0.819359
 O         2.229886       -0.434932        1.343995
 H         2.566847       -1.326836        1.510015
3
 generated by VMD
 N         0.079596       -2.401276       -0.801372
 O         2.200608       -0.381948        1.328447
 H         2.481513       -1.282915        1.505618
3
 generated by VMD
 N         0.089028       -2.377550       -0.781893
 O         2.173409       -0.326595        1.314599
 H         2.404338       -1.222844        1.499044
3
 generated by VMD
 N         0.098553       -2.352149       -0.761864
 O         2.145648       -0.271406        1.300856
 H         2.321797       -1.182756        1.509995
3
 generated by VMD
 N         0.108249       -2.325300       -0.740620
 O         2.118316       -0.219168        1.287342
 H         2.234401       -1.155309        1.518139
3
 generated by VMD
 N         0.120829       -2.297909       -0.722534
 O         2.091799       -0.166604        1.273268
 H         2.150083       -1.138887        1.526180
3
 generated by VMD
 N         0.133185       -2.271146       -0.702765
 O         2.066526       -0.114551        1.260784
 H         2.065070       -1.105640        1.528933
3
 generated by VMD
 N         0.143552       -2.239900       -0.681276
 O         2.040653       -0.060733        1.244486
 H         1.987778       -1.047298        1.515895
3
 generated by VMD
 N         0.153217       -2.209214       -0.657868
 O         2.014423       -0.005284        1.229628
 H         1.915179       -0.968936        1.499911
3
 generated by VMD
 N         0.161634       -2.179458       -0.634418
 O         1.986110        0.050502        1.220719
 H         1.826105       -0.876125        1.480523
3
 generated by VMD
 N         0.169639       -2.150733       -0.610108
 O         1.957137        0.107120        1.212226
 H         1.742998       -0.776745        1.455845
3
 generated by VMD
 N         0.178066       -2.121344       -0.585313
 O         1.928322        0.164075        1.202195
 H         1.649448       -0.700929        1.436536
3
 generated by VMD
 N         0.189615       -2.092144       -0.562358
 O         1.901139        0.222415        1.191608
 H         1.568952       -0.637958        1.427273
3
 generated by VMD
 N         0.202581       -2.065006       -0.539344
 O         1.872468        0.283416        1.181283
 H         1.482188       -0.594353        1.427261
3
 generated by VMD
 N         0.215337       -2.037294       -0.516867
 O         1.846555        0.340818        1.171347
 H         1.400225       -0.545686        1.425148
3
 generated by VMD
 N         0.223882       -2.010479       -0.495791
 O         1.819852        0.396828        1.161543
 H         1.328972       -0.474525        1.426257
3
 generated by VMD
 N         0.234759       -1.988305       -0.476012
 O         1.791279        0.452289        1.154381
 H         1.255799       -0.390530        1.421163
3
 generated by VMD
 N         0.246217       -1.966841       -0.458990
 O         1.760890        0.507140        1.148227
 H         1.190774       -0.287801        1.400641
3
 generated by VMD
 N         0.255760       -1.949426       -0.442992
 O         1.731080        0.558735        1.141591
 H         1.131657       -0.174233        1.386594
3
 generated by VMD
 N         0.264989       -1.934459       -0.426814
 O         1.705590        0.611667        1.133458
 H         1.082546       -0.060743        1.369765
3
 generated by VMD
 N         0.272159       -1.920113       -0.409404
 O         1.678335        0.664090        1.127852
 H         1.024762        0.035012        1.343711
3
 generated by VMD
 N         0.276042       -1.903982       -0.389391
 O         1.653169        0.715108        1.122890
 H         0.963486        0.104157        1.317831
3
 generated by VMD
 N         0.279713       -1.885165       -0.368954
 O         1.628179        0.764370        1.118554
 H         0.905271        0.167390        1.285293
3
 generated by VMD
 N         0.285757       -1.868793       -0.347364
 O         1.604729        0.813504        1.115139
 H         0.848083        0.223427        1.250730
3
 generated by VMD
 N         0.291821       -1.852824       -0.325349
 O         1.581398        0.864273        1.109389
 H         0.791324        0.266676        1.212467
3
 generated by VMD
 N         0.294283       -1.838373       -0.303797
 O         1.559055        0.909883        1.101591
 H         0.738587        0.319741        1.171860
3
 generated by VMD
 N         0.296627       -1.824347       -0.281049
 O         1.537695        0.953961        1.096390
 H         0.710726        0.381190        1.135342
3
 generated by VMD
 N         0.299864       -1.812742       -0.256127
 O         1.515375        0.995968        1.092357
 H         0.688858        0.452250        1.095189
3
 generated by VMD
 N         0.303004       -1.799102       -0.230322
 O         1.494547        1.037723        1.090908
 H         0.669522        0.523897        1.065205
3
 generated by VMD
 N         0.305459       -1.782035       -0.204968
 O         1.475888        1.078409        1.086458
 H         0.649377        0.599872        1.053769
3
 generated by VMD
 N         0.307766       -1.766119       -0.178687
 O         1.454796        1.118605        1.080753
 H         0.613206        0.677857        1.041975
3
 generated by VMD
 N         0.310354       -1.747739       -0.151838
 O         1.431437        1.157404        1.074740
 H         0.578153        0.752894        1.026226
3
 generated by VMD
 N         0.313776       -1.729397       -0.126181
 O         1.409680        1.195066        1.071186
 H         0.519815        0.828203        1.010575
3
 generated by VMD
 N         0.316852       -1.712361       -0.102383
 O         1.387462        1.230736        1.069957
 H         0.454607        0.900817        0.974767
3
 generated by VMD
 N         0.321038       -1.696336       -0.079386
 O         1.361731        1.265336        1.066545
 H         0.399095        0.963032        0.941421
3
 generated by VMD
 N         0.322535       -1.684933       -0.055283
 O         1.335437        1.298125        1.062940
 H         0.365770        1.020617        0.920499
3
 generated by VMD
 N         0.323515       -1.677936       -0.031624
 O         1.308292        1.333010        1.061702
 H         0.346869        1.077933        0.914150
3
 generated by VMD
 N         0.319301       -1.671450       -0.008833
 O         1.279314        1.365992        1.058407
 H         0.344091        1.135888        0.904490
3
 generated by VMD
 N         0.313443       -1.660866        0.011847
 O         1.251421        1.398961        1.052241
 H         0.331977        1.193357        0.886996
3
 generated by VMD
 N         0.307383       -1.649953        0.030057
 O         1.224079        1.429089        1.044731
 H         0.312767        1.245310        0.867979
3
 generated by VMD
 N         0.298938       -1.640551        0.048155
 O         1.197754        1.462119        1.035993
 H         0.281832        1.298197        0.849338
3
 generated by VMD
 N         0.291733       -1.632129        0.063583
 O         1.171837        1.494691        1.024397
 H         0.238665        1.350913        0.835147
3
 generated by VMD
 N         0.283818       -1.628128        0.083440
 O         1.145134        1.526474        1.012921
 H         0.193937        1.407699        0.809409
3
 generated by VMD
 N         0.275888       -1.620534        0.105096
 O         1.118349        1.555240        1.001654
 H         0.157223        1.468987        0.773429
3
 generated by VMD
 N         0.266444       -1.611618        0.128862
 O         1.092062        1.588198        0.991999
 H         0.135892        1.527778        0.732511
3
 generated by VMD
 N         0.259129       -1.600688        0.150155
 O         1.065488        1.620342        0.983263
 H         0.125889        1.598128        0.693244
3
 generated by VMD
 N         0.252392       -1.589771        0.171765
 O         1.038458        1.652250        0.977975
 H         0.112009        1.682575        0.654439
3
 generated by VMD
 N         0.247738       -1.577760        0.189560
 O         1.010712        1.684515        0.970452
 H         0.101786        1.760750        0.613700
3
 generated by VMD
 N         0.247520       -1.564892        0.207787
 O         0.984148        1.715091        0.966756
 H         0.093301        1.820287        0.577136
3
 generated by VMD
 N         0.247591       -1.549860        0.225157
 O         0.957343        1.744310        0.961250
 H         0.084759        1.888882        0.539944
3
 generated by VMD
 N         0.246550       -1.537427        0.242680
 O         0.926300        1.773308        0.957028
 H         0.069743        1.958690        0.501311
3
 generated by VMD
 N         0.244796       -1.524095        0.259666
 O         0.893698        1.802582        0.954266
 H         0.062383        2.019574        0.478201
3
 generated by VMD
 N         0.243987       -1.509019        0.280355
 O         0.862670        1.836352        0.952293
 H         0.071121        2.078117        0.467474
3
 generated by VMD
 N         0.244569       -1.498317        0.304819
 O         0.831705        1.870013        0.947308
 H         0.059935        2.142518        0.458020
3
 generated by VMD
 N         0.242219       -1.484675        0.326272
 O         0.798840        1.904677        0.941991
 H         0.038992        2.201220        0.431264
3
 generated by VMD
 N         0.241394       -1.469616        0.351297
 O         0.761616        1.939381        0.934265
 H         0.021069        2.254079        0.409434
3
 generated by VMD
 N         0.241095       -1.457970        0.376760
 O         0.724737        1.972885        0.927168
 H        -0.008682        2.320534        0.399142
3
 generated by VMD
 N         0.244963       -1.447072        0.402958
 O         0.687172        2.004595        0.918868
 H        -0.048573        2.389212        0.388383
3
 generated by VMD
 N         0.245169       -1.440183        0.428725
 O         0.649870        2.032794        0.906924
 H        -0.097919        2.460892        0.377080
3
 generated by VMD
 N         0.243813       -1.433999        0.454452
 O         0.611386        2.059463        0.896240
 H        -0.138619        2.528083        0.377447
3
 generated by VMD
 N         0.242072       -1.427912        0.482367
 O         0.575229        2.087686        0.885777
 H        -0.157576        2.595182        0.390308
3
 generated by VMD
 N         0.239865       -1.421313        0.510313
 O         0.539815        2.115340        0.876309
 H        -0.170126        2.648609        0.408259
3
 generated by VMD
 N         0.239124       -1.415210        0.538453
 O         0.504152        2.144385        0.865456
 H        -0.170038        2.691492        0.425339
3
 generated by VMD
 N         0.238365       -1.410683        0.564852
 O         0.465706        2.173562        0.853683
 H        -0.168330        2.753618        0.433010
3
 generated by VMD
 N         0.239196       -1.407020        0.587027
 O         0.426316        2.200402        0.839972
 H        -0.179244        2.818318        0.435435
3
 generated by VMD
 N         0.242512       -1.406749        0.610640
 O         0.386114        2.225516        0.827558
 H        -0.194874        2.893073        0.437353
3
 generated by VMD
 N         0.245886       -1.404483        0.633952
 O         0.344767        2.246483        0.816451
 H        -0.214857        2.969148        0.420608
3
 generated by VMD
 N         0.247826       -1.400817        0.661155
 O         0.303095        2.267528        0.805924
 H        -0.229131        3.046263        0.415034
3
 generated by VMD
 N         0.248898       -1.399920        0.688676
 O         0.261067        2.288455        0.798453
 H        -0.235914        3.098548        0.412305
3
 generated by VMD
 N         0.251949       -1.398486        0.715161
 O         0.217471        2.311980        0.792270
 H        -0.239432        3.142815        0.434829
3
 generated by VMD
 N         0.253583       -1.398164        0.741099
 O         0.172703        2.332167        0.786322
 H        -0.240879        3.180228        0.467023
3
 generated by VMD
 N         0.257458       -1.397655        0.768562
 O         0.130099        2.351837        0.780477
 H        -0.243507        3.213003        0.503241
3
 generated by VMD
 N         0.262528       -1.398160        0.795593
 O         0.089024        2.370042        0.775721
 H        -0.237948        3.241679        0.526636
3
 generated by VMD
 N         0.265921       -1.400097        0.825434
 O         0.045643        2.390367        0.771536
 H        -0.228846        3.268153        0.543649
3
 generated by VMD
 N         0.270129       -1.402543        0.851819
 O         0.000940        2.407463        0.768121
 H        -0.224746        3.306790        0.552455
3
 generated by VMD
 N         0.274746       -1.400888        0.880705
 O        -0.044946        2.426887        0.766387
 H        -0.221184        3.359368        0.553702
3
 generated by VMD
 N         0.282105       -1.398719        0.908126
 O        -0.089098        2.444165        0.763973
 H        -0.208850        3.424898        0.556449
3
 generated by VMD
 N         0.288290       -1.399551        0.934131
 O        -0.135225        2.464773        0.759819
 H        -0.190095        3.478849        0.565570
3
 generated by VMD
 N         0.294019       -1.398850        0.958492
 O        -0.182388        2.486393        0.757515
 H        -0.169401        3.510890        0.585213
3
 generated by VMD
 N         0.298552       -1.399213        0.984973
 O        -0.228968        2.507100        0.749583
 H        -0.143232        3.512935        0.604344
3
 generated by VMD
 N         0.302458       -1.401459        1.011745
 O        -0.275975        2.528809        0.740698
 H        -0.116165        3.497285        0.629498
3
 generated by VMD
 N         0.305974       -1.402269        1.034280
 O        -0.322585        2.551840        0.730445
 H        -0.088059        3.480238        0.661747
3
 generated by VMD
 N         0.307013       -1.406163        1.057253
 O        -0.370963        2.575842        0.724131
 H        -0.062031        3.471042        0.690166
3
 generated by VMD
 N         0.306258       -1.412372        1.079087
 O        -0.420351        2.596046        0.718961
 H        -0.017222        3.483032        0.708939
3
 generated by VMD
 N         0.305821       -1.416459        1.102760
 O        -0.471613        2.610625        0.708312
 H         0.025551        3.501383        0.729971
3
 generated by VMD
 N         0.304735       -1.418699        1.127493
 O        -0.524765        2.626933        0.697345
 H         0.055625        3.505688        0.744161
3
 generated by VMD
 N         0.302061       -1.424718        1.151427
 O        -0.575347        2.643698        0.686650
 H         0.065889        3.491729        0.751890
3
 generated by VMD
 N         0.303806       -1.435146        1.174393
 O        -0.625565        2.661653        0.678253
 H         0.059972        3.443362        0.758467
3
 generated by VMD
 N         0.303538       -1.445988        1.197979
 O        -0.672577        2.677492        0.670342
 H         0.035675        3.355491        0.764434
3
 generated by VMD
 N         0.305186       -1.459126        1.221347
 O        -0.719607        2.694635        0.664357
 H         0.008851        3.267545        0.771698
3
 generated by VMD
 N         0.303792       -1.472323        1.243359
 O        -0.764985        2.712711        0.656088
 H         0.004397        3.192719        0.788808
3
 generated by VMD
 N         0.306690       -1.481559        1.264566
 O        -0.812547        2.727173        0.647246
 H         0.036538        3.145186        0.802940
3
 generated by VMD
 N         0.308695       -1.492703        1.282499
 O        -0.859399        2.742923        0.637119
 H         0.073655        3.097997        0.818162
3
 generated by VMD
 N         0.308094       -1.502641        1.297987
 O        -0.901632        2.756830        0.624499
 H         0.093181        3.042059        0.821028
3
 generated by VMD
 N         0.307202       -1.512609        1.311962
 O        -0.942106        2.768000        0.610343
 H         0.081522        2.993810        0.821990
3
 generated by VMD
 N         0.310706       -1.522314        1.333457
 O        -0.979554        2.778159        0.595249
 H         0.033325        2.930522        0.827992
3
 generated by VMD
 N         0.312239       -1.530802        1.355040
 O        -1.014034        2.787453        0.581807
 H        -0.035974        2.869127        0.827365
3
 generated by VMD
 N         0.311615       -1.538628        1.375752
 O        -1.048003        2.796064        0.571799
 H        -0.120316        2.811095        0.818445
3
 generated by VMD
 N         0.308008       -1.547787        1.398110
 O        -1.079284        2.802702        0.559775
 H        -0.197342        2.754260        0.816743
3
 generated by VMD
 N         0.302440       -1.557772        1.421237
 O        -1.112603        2.808797        0.551028
 H        -0.245870        2.688261        0.822441
3
 generated by VMD
 N         0.296151       -1.565809        1.444221
 O        -1.144335        2.814698        0.543943
 H        -0.265765        2.623082        0.843437
3
 generated by VMD
 N         0.291525       -1.575592        1.468844
 O        -1.176706        2.820927        0.536784
 H        -0.265950        2.555099        0.878651
3
 generated by VMD
 N         0.286663       -1.587620        1.492924
 O        -1.206446        2.825552        0.529971
 H        -0.272216        2.491354        0.917360
3
 generated by VMD
 N         0.283376       -1.600819        1.517865
 O        -1.235574        2.827111        0.522671
 H        -0.306829        2.443532        0.958042
3
 generated by VMD
 N         0.276788       -1.611025        1.547322
 O        -1.262037        2.825702        0.516016
 H        -0.362932        2.397690        0.986702
3
 generated by VMD
 N         0.270746       -1.620980        1.575298
 O        -1.287018        2.822332        0.509543
 H        -0.437392        2.367520        1.007129
3
 generated by VMD
 N         0.263542       -1.628432        1.603829
 O        -1.307236        2.818662        0.502973
 H        -0.536062        2.354390        1.007702
3
 generated by VMD
 N         0.258266       -1.638076        1.631378
 O        -1.328036        2.812283        0.500070
 H        -0.642109        2.355241        1.002100
3
 generated by VMD
 N         0.250203       -1.645100        1.663197
 O        -1.348617        2.806912        0.496334
 H        -0.740051        2.355281        0.994816
3
 generated by VMD
 N         0.243790       -1.651361        1.694808
 O        -1.367917        2.802981        0.492164
 H        -0.797764        2.333037        1.013444
3
 generated by VMD
 N         0.238447       -1.656222        1.724349
 O        -1.392563        2.797489        0.487232
 H        -0.830478        2.295253        1.063854
3
 generated by VMD
 N         0.232636       -1.662696        1.748768
 O        -1.418679        2.790527        0.484316
 H        -0.852236        2.250601        1.118534
3
 generated by VMD
 N         0.226265       -1.675066        1.773542
 O        -1.446275        2.783994        0.482331
 H        -0.884395        2.214087        1.159911
3
 generated by VMD
 N         0.218320       -1.686065        1.797971
 O        -1.471885        2.775294        0.481454
 H        -0.922769        2.181504        1.183824
3
 generated by VMD
 N         0.209842       -1.692963        1.819831
 O        -1.494601        2.763920        0.480954
 H        -0.981432        2.177952        1.196772
3
 generated by VMD
 N         0.197266       -1.697720        1.841328
 O        -1.518048        2.748152        0.480415
 H        -1.050563        2.202785        1.201890
3
 generated by VMD
 N         0.181718       -1.696081        1.865903
 O        -1.537813        2.732949        0.476688
 H        -1.109883        2.236745        1.194747
3
 generated by VMD
 N         0.164892       -1.691135        1.891295
 O        -1.558137        2.715360        0.473932
 H        -1.170510        2.266488        1.196176
3
 generated by VMD
 N         0.146702       -1.683820        1.921176
 O        -1.578200        2.700562        0.470356
 H        -1.225195        2.296014        1.204126
3
 generated by VMD
 N         0.126361       -1.678631        1.948328
 O        -1.601253        2.687537        0.461768
 H        -1.255998        2.306578        1.230711
3
 generated by VMD
 N         0.107142       -1.674325        1.974237
 O        -1.624782        2.672486        0.454837
 H        -1.276173        2.305124        1.288323
3
 generated by VMD
 N         0.087632       -1.672265        2.001167
 O        -1.647676        2.658041        0.448793
 H        -1.299638        2.302961        1.346616
3
 generated by VMD
 N         0.069416       -1.668306        2.026412
 O        -1.668424        2.642357        0.443258
 H        -1.327824        2.291923        1.380679
3
 generated by VMD
 N         0.051438       -1.662596        2.048139
 O        -1.686258        2.628488        0.439531
 H        -1.370245        2.285351        1.382975
3
 generated by VMD
 N         0.031035       -1.656605        2.068444
 O        -1.705212        2.613503        0.438245
 H        -1.428311        2.293022        1.367394
3
 generated by VMD
 N         0.008480       -1.649396        2.087525
 O        -1.725110        2.597891        0.439729
 H        -1.490806        2.292694        1.336572
3
 generated by VMD
 N        -0.013300       -1.641360        2.110476
 O        -1.744532        2.579677        0.442458
 H        -1.553976        2.296350        1.296545
3
 generated by VMD
 N        -0.030482       -1.636768        2.130772
 O        -1.762252        2.563213        0.445413
 H        -1.612880        2.289215        1.287277
3
 generated by VMD
 N        -0.045024       -1.630664        2.150432
 O        -1.779244        2.547681        0.447958
 H        -1.663089        2.272529        1.325028
3
 generated by VMD
 N        -0.060077       -1.620820        2.168801
 O        -1.796401        2.537015        0.446552
 H        -1.709895        2.244270        1.385895
3
 generated by VMD
 N        -0.077504       -1.610348        2.188452
 O        -1.814887        2.526844        0.447061
 H        -1.764658        2.212176        1.434448
3
 generated by VMD
 N        -0.095175       -1.601264        2.210739
 O        -1.834913        2.514629        0.449540
 H        -1.806970        2.184037        1.462515
3
 generated by VMD
 N        -0.112220       -1.591570        2.234689
 O        -1.855512        2.501200        0.454076
 H        -1.855147        2.182080        1.454597
3
 generated by VMD
 N        -0.134152       -1.580745        2.260027
 O        -1.873682        2.486729        0.457833
 H        -1.897079        2.173279        1.410634
3
 generated by VMD
 N        -0.155850       -1.573484        2.284076
 O        -1.894240        2.473900        0.462026
 H        -1.928061        2.165703        1.337355
3
 generated by VMD
 N        -0.176890       -1.564137        2.306851
 O        -1.915228        2.461832        0.463565
 H        -1.970228        2.158514        1.280436
3
 generated by VMD
 N        -0.200384       -1.556882        2.331728
 O        -1.933843        2.453253        0.461718
 H        -2.003492        2.122144        1.297963
3
 generated by VMD
 N        -0.225412       -1.549382        2.356109
 O        -1.953486        2.446833        0.457409
 H        -2.032391        2.080513        1.360596
3
 generated by VMD
 N        -0.249160       -1.544275        2.379905
 O        -1.970991        2.440304        0.455112
 H        -2.067885        2.033398        1.426770
3
 generated by VMD
 N        -0.271410       -1.538908        2.405167
 O        -1.988666        2.434083        0.457505
 H        -2.087018        2.011522        1.458586
3
 generated by VMD
 N        -0.292275       -1.533808        2.425745
 O        -2.006800        2.425470        0.461537
 H        -2.099264        2.007510        1.456295
3
 generated by VMD
 N        -0.312765       -1.530301        2.445865
 O        -2.026907        2.418602        0.469977
 H        -2.106008        2.018672        1.416369
3
 generated by VMD
 N        -0.330442       -1.522468        2.467719
 O        -2.045156        2.409875        0.479128
 H        -2.107976        2.041111        1.358919
3
 generated by VMD
 N        -0.345505       -1.517991        2.488279
 O        -2.062209        2.397126        0.487831
 H        -2.123389        2.065736        1.314506
3
 generated by VMD
 N        -0.358840       -1.510002        2.506821
 O        -2.077004        2.383877        0.495057
 H        -2.145713        2.071796        1.320171
3
 generated by VMD
 N        -0.371361       -1.502224        2.521668
 O        -2.092740        2.371524        0.497900
 H        -2.178543        2.058975        1.384794
3
 generated by VMD
 N        -0.385016       -1.496289        2.537879
 O        -2.110278        2.358342        0.499548
 H        -2.204822        2.037863        1.464005
3
 generated by VMD
 N        -0.395943       -1.487766        2.554523
 O        -2.126919        2.345138        0.503796
 H        -2.226269        2.029688        1.527660
3
 generated by VMD
 N        -0.406483       -1.477871        2.570842
 O        -2.141096        2.329146        0.506503
 H        -2.238883        2.022531        1.564716
3
 generated by VMD
 N        -0.418869       -1.467233        2.587042
 O        -2.153690        2.311278        0.511245
 H        -2.251082        2.039010        1.565600
3
 generated by VMD
 N        -0.435322       -1.456584        2.599801
 O        -2.167521        2.292575        0.519378
 H        -2.249011        2.071050        1.528398
3
 generated by VMD
 N        -0.447650       -1.445049        2.616384
 O        -2.178537        2.274723        0.532256
 H        -2.244895        2.100106        1.476109
3
 generated by VMD
 N        -0.461489       -1.433029        2.632846
 O        -2.193007        2.257258        0.543822
 H        -2.240626        2.121677        1.432232
3
 generated by VMD
 N        -0.473117       -1.418578        2.650010
 O        -2.209728        2.239809        0.556286
 H        -2.227616        2.141481        1.442221
3
 generated by VMD
 N        -0.480377       -1.405474        2.668458
 O        -2.225715        2.219559        0.565235
 H        -2.211135        2.152404        1.493733
3
 generated by VMD
 N        -0.487839       -1.391113        2.689448
 O        -2.243344        2.199244        0.574104
 H        -2.189208        2.172669        1.563899
3
 generated by VMD
 N        -0.495128       -1.375599        2.709372
 O        -2.260643        2.179585        0.581003
 H        -2.172949        2.199444        1.615767
3
 generated by VMD
 N        -0.502837       -1.364876        2.727695
 O        -2.275843        2.162836        0.586018
 H        -2.165373        2.224507        1.635233
3
 generated by VMD
 N        -0.510332       -1.353426        2.743932
 O        -2.291634        2.145192        0.595264
 H        -2.157263        2.246501        1.622270
3
 generated by VMD
 N        -0.518188       -1.339507        2.758187
 O        -2.308112        2.126381        0.606374
 H        -2.150570        2.267565        1.589358
3
 generated by VMD
 N        -0.532441       -1.326918        2.767699
 O        -2.324039        2.108583        0.618288
 H        -2.146734        2.287205        1.537847
3
 generated by VMD
 N        -0.548697       -1.311947        2.776947
 O        -2.339518        2.087216        0.628896
 H        -2.150265        2.304879        1.504762
3
 generated by VMD
 N        -0.562725       -1.295286        2.782772
 O        -2.359179        2.065668        0.638837
 H        -2.147862        2.322705        1.489275
3
 generated by VMD
 N        -0.574997       -1.281876        2.785072
 O        -2.378079        2.043911        0.648211
 H        -2.137275        2.338449        1.514052
3
 generated by VMD
 N        -0.589223       -1.268899        2.783069
 O        -2.398403        2.021433        0.657082
 H        -2.116120        2.357740        1.573059
3
 generated by VMD
 N        -0.602374       -1.253512        2.780897
 O        -2.417622        2.002052        0.666437
 H        -2.086566        2.383106        1.622412
3
 generated by VMD
 N        -0.614582       -1.235426        2.778394
 O        -2.435965        1.980955        0.675728
 H        -2.063298        2.399012        1.633212
3
 generated by VMD
 N        -0.622873       -1.217438        2.776093
 O        -2.452080        1.960037        0.682906
 H        -2.051887        2.402311        1.609024
3
 generated by VMD
 N        -0.631122       -1.200909        2.771581
 O        -2.464772        1.942852        0.690602
 H        -2.040791        2.379356        1.565084
3
 generated by VMD
 N        -0.641769       -1.183717        2.767570
 O        -2.475983        1.928240        0.698760
 H        -2.043365        2.353648        1.493432
3
 generated by VMD
 N        -0.655583       -1.167377        2.761921
 O        -2.487153        1.917826        0.710981
 H        -2.061957        2.315429        1.419433
3
 generated by VMD
 N        -0.669328       -1.152491        2.755093
 O        -2.495762        1.906049        0.721962
 H        -2.064341        2.279411        1.369604
3
 generated by VMD
 N        -0.682513       -1.137934        2.746940
 O        -2.506990        1.891306        0.729283
 H        -2.030735        2.264688        1.372243
3
 generated by VMD
 N        -0.691046       -1.122320        2.741019
 O        -2.521013        1.880766        0.734423
 H        -1.963245        2.278754        1.422847
3
 generated by VMD
 N        -0.699293       -1.107937        2.731625
 O        -2.535409        1.870694        0.736183
 H        -1.889607        2.293558        1.470757
3
 generated by VMD
 N        -0.706779       -1.093647        2.722740
 O        -2.548611        1.862299        0.739945
 H        -1.844337        2.297240        1.489744
3
 generated by VMD
 N        -0.710210       -1.075156        2.713683
 O        -2.562442        1.853287        0.744624
 H        -1.824118        2.299146        1.465771
3
 generated by VMD
 N        -0.712169       -1.058567        2.706435
 O        -2.571565        1.847465        0.752750
 H        -1.831013        2.292936        1.411078
3
 generated by VMD
 N        -0.710098       -1.042596        2.698712
 O        -2.580892        1.843562        0.764058
 H        -1.858834        2.273632        1.344596
3
 generated by VMD
 N        -0.708621       -1.028634        2.689846
 O        -2.589259        1.839030        0.775667
 H        -1.894522        2.250795        1.270045
3
 generated by VMD
 N        -0.706949       -1.014294        2.681644
 O        -2.599583        1.835016        0.788129
 H        -1.915453        2.234889        1.216447
3
 generated by VMD
 N        -0.702016       -1.000086        2.669011
 O        -2.610448        1.830016        0.796480
 H        -1.907470        2.232791        1.178986
3
 generated by VMD
 N        -0.694705       -0.988696        2.657036
 O        -2.621661        1.822450        0.800028
 H        -1.858651        2.254626        1.162357
3
 generated by VMD
 N        -0.688965       -0.977157        2.642601
 O        -2.634430        1.813169        0.803473
 H        -1.805551        2.277861        1.161157
3
 generated by VMD
 N        -0.686298       -0.963635        2.626880
 O        -2.642955        1.805945        0.805272
 H        -1.756345        2.289715        1.148361
3
 generated by VMD
 N        -0.688784       -0.955031        2.610465
 O        -2.651047        1.797025        0.806149
 H        -1.714848        2.296701        1.130047
3
 generated by VMD
 N        -0.689494       -0.946520        2.592941
 O        -2.655021        1.789106        0.809212
 H        -1.712174        2.274812        1.102726
3
 generated by VMD
 N        -0.692864       -0.938085        2.574780
 O        -2.655188        1.783278        0.816196
 H        -1.748805        2.239115        1.052601
3
 generated by VMD
 N        -0.695988       -0.930581        2.557676
 O        -2.654581        1.777652        0.823716
 H        -1.808761        2.195678        0.994590
3
 generated by VMD
 N        -0.700403       -0.925481        2.539712
 O        -2.658149        1.770633        0.827599
 H        -1.877876        2.165089        0.949149
3
 generated by VMD
 N        -0.703176       -0.920501        2.520851
 O        -2.663839        1.760121        0.830716
 H        -1.883705        2.174054        0.916947
3
 generated by VMD
 N        -0.704301       -0.919536        2.503232
 O        -2.672518        1.749270        0.831449
 H        -1.845415        2.218835        0.877367
3
 generated by VMD
 N        -0.706044       -0.914731        2.485688
 O        -2.681117        1.736541        0.836174
 H        -1.795880        2.272439        0.828911
3
 generated by VMD
 N        -0.706193       -0.910029        2.466102
 O        -2.686851        1.725985        0.840651
 H        -1.766856        2.305460        0.785292
3
 generated by VMD
 N        -0.705389       -0.904343        2.444040
 O        -2.688046        1.715366        0.845357
 H        -1.761588        2.312255        0.741325
3
 generated by VMD
 N        -0.703894       -0.898135        2.420626
 O        -2.684392        1.702818        0.846647
 H        -1.807097        2.301234        0.701619
3
 generated by VMD
 N        -0.702147       -0.891567        2.399996
 O        -2.678375        1.688557        0.847002
 H        -1.871286        2.274080        0.668273
3
 generated by VMD
 N        -0.698042       -0.883221        2.381729
 O        -2.672162        1.673044        0.846985
 H        -1.950286        2.232084        0.635701
3
 generated by VMD
 N        -0.691584       -0.876917        2.360412
 O        -2.666645        1.654303        0.848624
 H        -1.997718        2.209855        0.586428
3
 generated by VMD
 N        -0.684749       -0.866699        2.339288
 O        -2.660459        1.633182        0.850908
 H        -2.008499        2.199855        0.533994
3
 generated by VMD
 N        -0.679727       -0.856806        2.317760
 O        -2.653336        1.609973        0.856244
 H        -1.992892        2.210048        0.465537
3
 generated by VMD
 N        -0.674707       -0.841260        2.294042
 O        -2.646390        1.589545        0.862864
 H        -1.973832        2.229166        0.380979
3
 generated by VMD
 N        -0.670137       -0.825253        2.265610
 O        -2.637891        1.572149        0.869516
 H        -1.976478        2.230584        0.311675
3
 generated by VMD
 N        -0.664862       -0.806670        2.240231
 O        -2.632474        1.554037        0.875531
 H        -1.998460        2.203721        0.272077
3
 generated by VMD
 N        -0.658190       -0.789071        2.217416
 O        -2.627104        1.538410        0.884230
 H        -2.056441        2.149542        0.257680
3
 generated by VMD
 N        -0.649846       -0.772661        2.194253
 O        -2.621238        1.519956        0.893502
 H        -2.132060        2.085016        0.265020
3
 generated by VMD
 N        -0.639910       -0.756192        2.169357
 O        -2.613377        1.499683        0.904359
 H        -2.212947        2.008094        0.276620
3
 generated by VMD
 N        -0.628269       -0.740269        2.144186
 O        -2.606971        1.476701        0.917262
 H        -2.267886        1.946861        0.253834
3
 generated by VMD
 N        -0.613738       -0.728026        2.121921
 O        -2.603848        1.451020        0.932508
 H        -2.292917        1.911673        0.190374
3
 generated by VMD
 N        -0.595251       -0.716804        2.095341
 O        -2.599863        1.424046        0.947487
 H        -2.315934        1.893333        0.109747
3
 generated by VMD
 N        -0.573901       -0.704869        2.071029
 O        -2.595245        1.398507        0.961184
 H        -2.342952        1.864551        0.031363
3
 generated by VMD
 N        -0.554753       -0.695868        2.047508
 O        -2.589541        1.373190        0.973396
 H        -2.384348        1.828022       -0.018651
3
 generated by VMD
 N        -0.534727       -0.688247        2.022717
 O        -2.582139        1.346689        0.984164
 H        -2.433440        1.779715       -0.022650
3
 generated by VMD
 N        -0.512007       -0.684373        1.999815
 O        -2.572119        1.320057        0.991994
 H        -2.487300        1.707008        0.014753
3
 generated by VMD
 N        -0.490357       -0.683267        1.977906
 O        -2.561410        1.296740        0.996922
 H        -2.541470        1.626384        0.068062
3
 generated by VMD
 N        -0.468266       -0.686212        1.955160
 O        -2.549075        1.274637        1.000573
 H        -2.606837        1.538442        0.117664
3
 generated by VMD
 N        -0.447436       -0.686388        1.933536
 O        -2.532593        1.252734        1.003438
 H        -2.678617        1.467867        0.123744
3
 generated by VMD
 N        -0.424288       -0.686632        1.910443
 O        -2.514228        1.230551        1.008517
 H        -2.746242        1.414319        0.094605
3
 generated by VMD
 N        -0.401990       -0.685105        1.888033
 O        -2.496291        1.207962        1.016074
 H        -2.810858        1.354325        0.061529
3
 generated by VMD
 N        -0.379465       -0.683783        1.867834
 O        -2.475286        1.189605        1.023952
 H        -2.870137        1.296087        0.042349
3
 generated by VMD
 N        -0.359163       -0.683580        1.848540
 O        -2.456262        1.173251        1.029657
 H        -2.898479        1.234662        0.046534
3
 generated by VMD
 N        -0.342971       -0.683193        1.829313
 O        -2.437596        1.155372        1.032861
 H        -2.920750        1.172098        0.091269
3
 generated by VMD
 N        -0.328024       -0.681761        1.808385
 O        -2.421143        1.141024        1.035705
 H        -2.939968        1.099422        0.166139
3
 generated by VMD
 N        -0.312330       -0.679301        1.786737
 O        -2.403653        1.126115        1.038585
 H        -2.960249        1.026570        0.246585
3
 generated by VMD
 N        -0.296089       -0.675556        1.766992
 O        -2.384048        1.110170        1.040066
 H        -2.989237        0.951413        0.338689
3
 generated by VMD
 N        -0.278193       -0.670651        1.747438
 O        -2.361133        1.097179        1.040398
 H        -3.026270        0.863862        0.413403
3
 generated by VMD
 N        -0.262790       -0.666067        1.728770
 O        -2.338786        1.086432        1.042617
 H        -3.075935        0.772517        0.490346
3
 generated by VMD
 N        -0.251110       -0.662867        1.710958
 O        -2.313909        1.076142        1.044467
 H        -3.132600        0.682493        0.564937
3
 generated by VMD
 N        -0.240123       -0.657405        1.691837
 O        -2.289742        1.066087        1.046424
 H        -3.175288        0.603457        0.651995
3
 generated by VMD
 N        -0.230638       -0.653123        1.676650
 O        -2.267313        1.053747        1.046252
 H        -3.193331        0.540672        0.737648
3
 generated by VMD
 N        -0.223943       -0.648494        1.661136
 O        -2.243834        1.040049        1.045198
 H        -3.173806        0.501079        0.830534
3
 generated by VMD
 N        -0.218425       -0.646669        1.643592
 O        -2.224888        1.025494        1.044680
 H        -3.109036        0.478297        0.942107
3
 generated by VMD
 N        -0.212911       -0.644410        1.624096
 O        -2.205363        1.013747        1.045181
 H        -3.015860        0.465353        1.067521
3
 generated by VMD
 N        -0.209798       -0.641373        1.604878
 O        -2.187348        1.000407        1.046068
 H        -2.927720        0.457834        1.192019
3
 generated by VMD
 N        -0.205033       -0.635778        1.586388
 O        -2.168509        0.986727        1.046429
 H        -2.864435        0.426511        1.319774
3
 generated by VMD
 N        -0.202541       -0.628169        1.568530
 O        -2.147839        0.973524        1.046781
 H        -2.823174        0.387872        1.445509
3
 generated by VMD
 N        -0.199832       -0.620564        1.554707
 O        -2.128671        0.963380        1.046886
 H        -2.776270        0.348414        1.571083
3
 generated by VMD
 N        -0.196009       -0.614463        1.543090
 O        -2.112843        0.953574        1.047133
 H        -2.719021        0.316473        1.689315
3
 generated by VMD
 N        -0.191583       -0.606277        1.533596
 O        -2.101463        0.941554        1.047993
 H        -2.621703        0.303856        1.795894
3
 generated by VMD
 N        -0.189840       -0.600812        1.524584
 O        -2.087213        0.926860        1.051857
 H        -2.499949        0.312616        1.872326
3
 generated by VMD
 N        -0.188313       -0.595991        1.518167
 O        -2.072834        0.908680        1.057507
 H        -2.378025        0.350305        1.912988
3
 generated by VMD
 N        -0.186953       -0.594057        1.513563
 O        -2.056745        0.888717        1.064665
 H        -2.244891        0.408048        1.929992
3
 generated by VMD
 N        -0.187052       -0.587523        1.505848
 O        -2.043731        0.867710        1.071809
 H        -2.121665        0.474492        1.937895
3
 generated by VMD
 N        -0.187523       -0.579269        1.494260
 O        -2.029015        0.845299        1.081218
 H        -1.997798        0.556717        1.947834
3
 generated by VMD
 N        -0.188088       -0.572319        1.480997
 O        -2.015403        0.823260        1.088242
 H        -1.888252        0.633416        1.971783
3
 generated by VMD
 N        -0.189110       -0.567906        1.469753
 O        -2.001164        0.798716        1.094495
 H        -1.788144        0.689306        2.041637
3
 generated by VMD
 N        -0.192564       -0.561544        1.457579
 O        -1.985973        0.774766        1.097604
 H        -1.702915        0.738452        2.099169
3
 generated by VMD
 N        -0.198361       -0.553462        1.442509
 O        -1.970507        0.746643        1.099682
 H        -1.634832        0.796862        2.138590
3
 generated by VMD
 N        -0.206252       -0.545427        1.425931
 O        -1.953237        0.714905        1.104833
 H        -1.586105        0.860147        2.152554
3
 generated by VMD
 N        -0.214624       -0.533318        1.406174
 O        -1.936283        0.683744        1.110748
 H        -1.554024        0.909928        2.110603
3
 generated by VMD
 N        -0.225483       -0.520670        1.386043
 O        -1.918494        0.649272        1.119607
 H        -1.528352        0.957034        2.030688
3
 generated by VMD
 N        -0.234687       -0.508978        1.364368
 O        -1.897146        0.618293        1.131082
 H        -1.510448        0.998746        1.927578
3
 generated by VMD
 N        -0.245130       -0.494394        1.343953
 O        -1.871672        0.587810        1.144420
 H        -1.502813        1.046878        1.834037
3
 generated by VMD
 N        -0.257015       -0.478691        1.326817
 O        -1.844998        0.558232        1.157166
 H        -1.488484        1.120088        1.786593
3
 generated by VMD
 N        -0.269291       -0.461329        1.308605
 O        -1.814747        0.525569        1.174101
 H        -1.469112        1.205460        1.774915
3
 generated by VMD
 N        -0.284343       -0.441642        1.289201
 O        -1.782025        0.492263        1.191402
 H        -1.459438        1.282275        1.764372
3
 generated by VMD
 N        -0.300970       -0.418809        1.269922
 O        -1.747467        0.459002        1.207538
 H        -1.448063        1.347030        1.739130
3
 generated by VMD
 N        -0.321594       -0.398008        1.250658
 O        -1.708777        0.425087        1.225249
 H        -1.436308        1.386114        1.705716
3
 generated by VMD
 N        -0.343704       -0.375401        1.231436
 O        -1.665761        0.392243        1.243999
 H        -1.432161        1.385076        1.638608
3
 generated by VMD
 N        -0.366876       -0.347648        1.212713
 O        -1.618434        0.362430        1.266095
 H        -1.442430        1.348905        1.567787
3
 generated by VMD
 N        -0.387836       -0.318109        1.195662
 O        -1.569805        0.333001        1.284280
 H        -1.449230        1.280405        1.496706
3
 generated by VMD
 N        -0.409183       -0.286259        1.176137
 O        -1.519106        0.302916        1.304842
 H        -1.446150        1.210962        1.419170
3
 generated by VMD
 N        -0.430741       -0.257348        1.157143
 O        -1.468874        0.271182        1.322595
 H        -1.443225        1.173797        1.358436
3
 generated by VMD
 N        -0.447240       -0.232461        1.141915
 O        -1.422135        0.241866        1.338789
 H        -1.438761        1.161499        1.300171
3
 generated by VMD
 N        -0.450293       -0.213099        1.126141
 O        -1.387213        0.215198        1.354923
 H        -1.442263        1.177959        1.231229
3
 generated by VMD
 N        -0.436236       -0.202474        1.106078
 O        -1.366122        0.194680        1.376613
 H        -1.449512        1.209567        1.165718
3
 generated by VMD
 N        -0.403337       -0.199365        1.080569
 O        -1.358459        0.178391        1.402958
 H        -1.471344        1.227380        1.095915
3
 generated by VMD
 N        -0.356806       -0.200292        1.049975
 O        -1.363008        0.169142        1.436554
 H        -1.503148        1.234340        1.043973
3
 generated by VMD
 N        -0.309332       -0.203238        1.017628
 O        -1.371551        0.163014        1.470109
 H        -1.529601        1.210601        1.007025
3
 generated by VMD
 N        -0.264404       -0.208636        0.988735
 O        -1.379966        0.161654        1.504503
 H        -1.568390        1.150715        1.003543
3
 generated by VMD
 N        -0.218119       -0.210749        0.959810
 O        -1.388180        0.161362        1.539493
 H        -1.598999        1.058645        1.017671
3
 generated by VMD
 N        -0.174043       -0.213617        0.933735
 O        -1.396389        0.159417        1.571923
 H        -1.628138        0.936469        1.031390
3
 generated by VMD
 N        -0.133816       -0.216434        0.908961
 O        -1.403008        0.160806        1.602165
 H        -1.657294        0.809090        1.039263
3
 generated by VMD
 N        -0.095702       -0.220196        0.886090
 O        -1.409884        0.160286        1.633919
 H        -1.695467        0.715426        1.028251
3
 generated by VMD
 N        -0.060903       -0.223779        0.868583
 O        -1.412193        0.155955        1.666502
 H        -1.757706        0.670105        0.978312
3
 generated by VMD
 N        -0.030675       -0.227685        0.852266
 O        -1.411281        0.146944        1.695086
 H        -1.820870        0.652476        0.908292
3
 generated by VMD
 N        -0.004640       -0.228300        0.836204
 O        -1.407505        0.137920        1.721842
 H        -1.884243        0.622674        0.857298
3
 generated by VMD
 N         0.014408       -0.224647        0.820710
 O        -1.402722        0.132158        1.743374
 H        -1.935931        0.578248        0.832316
3
 generated by VMD
 N         0.031769       -0.222406        0.809959
 O        -1.397919        0.127198        1.759543
 H        -1.978247        0.523646        0.839459
3
 generated by VMD
 N         0.044622       -0.219782        0.802734
 O        -1.391970        0.124710        1.774449
 H        -1.981043        0.447860        0.880094
3
 generated by VMD
 N         0.054239       -0.215361        0.797183
 O        -1.382614        0.121741        1.784881
 H        -1.961388        0.359880        0.958377
3
 generated by VMD
 N         0.061868       -0.208897        0.795243
 O        -1.370402        0.119069        1.793521
 H        -1.921474        0.266781        1.043520
3
 generated by VMD
 N         0.067361       -0.200839        0.796689
 O        -1.356579        0.117326        1.802605
 H        -1.886430        0.181235        1.134874
3
 generated by VMD
 N         0.074093       -0.193311        0.800402
 O        -1.337723        0.116936        1.812744
 H        -1.898400        0.097646        1.166698
3
 generated by VMD
 N         0.077482       -0.186805        0.809814
 O        -1.314763        0.116066        1.828979
 H        -1.962894        0.021274        1.146023
3
 generated by VMD
 N         0.080917       -0.181614        0.818855
 O        -1.286381        0.114603        1.844041
 H        -2.031240       -0.060170        1.119637
3
 generated by VMD
 N         0.083415       -0.180608        0.829598
 O        -1.258227        0.112142        1.855070
 H        -2.077787       -0.137808        1.117078
3
 generated by VMD
 N         0.083809       -0.180054        0.844852
 O        -1.230295        0.105614        1.866402
 H        -2.075911       -0.200035        1.151332
3
 generated by VMD
 N         0.082560       -0.176513        0.866024
 O        -1.198371        0.099566        1.873761
 H        -2.035463       -0.239541        1.226426
3
 generated by VMD
 N         0.078488       -0.175693        0.887442
 O        -1.166661        0.089103        1.877056
 H        -1.967457       -0.265038        1.324499
3
 generated by VMD
 N         0.071332       -0.173141        0.910499
 O        -1.134694        0.078672        1.880236
 H        -1.882339       -0.277949        1.432135
3
 generated by VMD
 N         0.063415       -0.169766        0.937823
 O        -1.098550        0.069483        1.880650
 H        -1.810555       -0.298654        1.523820
3
 generated by VMD
 N         0.053240       -0.164311        0.962865
 O        -1.059077        0.062963        1.882840
 H        -1.785064       -0.328688        1.571613
3
 generated by VMD
 N         0.039089       -0.161090        0.991095
 O        -1.016110        0.058155        1.886664
 H        -1.805167       -0.395143        1.594633
3
 generated by VMD
 N         0.024254       -0.157574        1.020000
 O        -0.970136        0.053212        1.889894
 H        -1.835733       -0.468053        1.625208
3
 generated by VMD
 N         0.008420       -0.153883        1.047446
 O        -0.925441        0.046594        1.892709
 H        -1.840364       -0.536155        1.675937
3
 generated by VMD
 N        -0.010199       -0.153815        1.077400
 O        -0.880941        0.040768        1.894857
 H        -1.816058       -0.593856        1.727440
3
 generated by VMD
 N        -0.026814       -0.156629        1.106641
 O        -0.836935        0.033352        1.901634
 H        -1.762941       -0.626950        1.781157
3
 generated by VMD
 N        -0.045507       -0.157549        1.131257
 O        -0.801723        0.026267        1.908819
 H        -1.695774       -0.651016        1.835868
3
 generated by VMD
 N        -0.057956       -0.158013        1.148919
 O        -0.774082        0.021922        1.921837
 H        -1.636542       -0.670550        1.895451
3
 generated by VMD
 N        -0.061562       -0.161284        1.153606
 O        -0.756099        0.016970        1.944904
 H        -1.573462       -0.671697        1.954077
3
 generated by VMD
 N        -0.053529       -0.166372        1.147146
 O        -0.745157        0.010193        1.976353
 H        -1.499165       -0.671305        2.007849
3
 generated by VMD
 N        -0.036131       -0.174345        1.128073
 O        -0.740179        0.002765        2.014896
 H        -1.413845       -0.680113        2.069144
3
 generated by VMD
 N        -0.015349       -0.183140        1.101788
 O        -0.741051       -0.000058        2.061321
 H        -1.330662       -0.689069        2.123878
3
 generated by VMD
 N         0.005831       -0.191020        1.073830
 O        -0.740270       -0.001935        2.107736
 H        -1.294299       -0.733473        2.184032
3
 generated by VMD
 N         0.026028       -0.196695        1.045382
 O        -0.739978       -0.002483        2.152797
 H        -1.262857       -0.809521        2.252520
3
 generated by VMD
 N         0.045536       -0.204996        1.016224
 O        -0.739211       -0.004095        2.193293
 H        -1.234331       -0.878381        2.334026
3
 generated by VMD
 N         0.064958       -0.211751        0.987317
 O        -0.734377       -0.004456        2.227979
 H        -1.199564       -0.937537        2.416817
3
 generated by VMD
 N         0.087010       -0.219659        0.960918
 O        -0.732065       -0.007507        2.261510
 H        -1.158458       -0.958615        2.498913
3
 generated by VMD
 N         0.102279       -0.225428        0.939187
 O        -0.729126       -0.012374        2.294748
 H        -1.098190       -0.944458        2.563560
3
 generated by VMD
 N         0.112126       -0.233850        0.920162
 O        -0.724051       -0.021328        2.323905
 H        -1.025100       -0.910273        2.627850
3
 generated by VMD
 N         0.116596       -0.241458        0.905597
 O        -0.720652       -0.031654        2.349981
 H        -0.947644       -0.874807        2.675639
3
 generated by VMD
 N         0.122798       -0.246943        0.895511
 O        -0.712676       -0.041263        2.371116
 H        -0.863888       -0.864193        2.736590
3
 generated by VMD
 N         0.124307       -0.248562        0.891453
 O        -0.701620       -0.049328        2.388287
 H        -0.786779       -0.889826        2.808255
3
 generated by VMD
 N         0.124010       -0.250816        0.892716
 O        -0.687992       -0.054370        2.398631
 H        -0.704765       -0.932273        2.869743
3
 generated by VMD
 N         0.123072       -0.253408        0.897076
 O        -0.673703       -0.058863        2.406951
 H        -0.618403       -0.968279        2.931802
3
 generated by VMD
 N         0.121050       -0.256122        0.905444
 O        -0.657590       -0.063133        2.412528
 H        -0.534887       -0.986254        2.966101
3
 generated by VMD
 N         0.116445       -0.257392        0.912274
 O        -0.638677       -0.069276        2.418126
 H        -0.454444       -0.976819        2.989390
3
 generated by VMD
 N         0.107734       -0.260385        0.920944
 O        -0.618868       -0.080538        2.422998
 H        -0.377579       -0.921261        2.987510
3
 generated by VMD
 N         0.101215       -0.259069        0.936152
 O        -0.597916       -0.091566        2.425700
 H        -0.297405       -0.852797        2.966316
3
 generated by VMD
 N         0.093865       -0.255926        0.952403
 O        -0.573590       -0.104619        2.426255
 H        -0.216216       -0.775113        2.946133
3
 generated by VMD
 N         0.082204       -0.258052        0.976553
 O        -0.546526       -0.117927        2.425381
 H        -0.132090       -0.731869        2.929660
3
 generated by VMD
 N         0.070570       -0.260341        1.006486
 O        -0.519754       -0.129670        2.416986
 H        -0.036888       -0.716926        2.942681
3
 generated by VMD
 N         0.058703       -0.260501        1.040474
 O        -0.491867       -0.141275        2.407438
 H         0.068560       -0.727426        2.967730
3
 generated by VMD
 N         0.045966       -0.260541        1.073339
 O        -0.463677       -0.151944        2.397135
 H         0.186830       -0.724655        2.989360
3
 generated by VMD
 N         0.032411       -0.260839        1.107591
 O        -0.433671       -0.163868        2.386774
 H         0.285481       -0.707156        2.984855
3
 generated by VMD
 N         0.017854       -0.260411        1.143427
 O        -0.400400       -0.175263        2.375832
 H         0.359437       -0.660039        2.949813
3
 generated by VMD
 N         0.004593       -0.263891        1.178509
 O        -0.366628       -0.188589        2.370933
 H         0.400749       -0.584155        2.904252
3
 generated by VMD
 N        -0.008164       -0.267229        1.215028
 O        -0.331584       -0.203161        2.369548
 H         0.440950       -0.495924        2.861024
3
 generated by VMD
 N        -0.020583       -0.274855        1.247721
 O        -0.300277       -0.219200        2.370077
 H         0.479991       -0.410358        2.836078
3
 generated by VMD
 N        -0.031164       -0.279542        1.272749
 O        -0.272075       -0.234069        2.377072
 H         0.539833       -0.325230        2.847255
3
 generated by VMD
 N        -0.036775       -0.283599        1.288444
 O        -0.246525       -0.250609        2.394377
 H         0.624950       -0.241302        2.888574
3
 generated by VMD
 N        -0.039647       -0.286376        1.291131
 O        -0.222415       -0.262500        2.419574
 H         0.709520       -0.154117        2.929239
3
 generated by VMD
 N        -0.039255       -0.290056        1.288455
 O        -0.197057       -0.275209        2.449212
 H         0.775870       -0.075004        2.958801
3
 generated by VMD
 N        -0.039188       -0.292460        1.280627
 O        -0.169613       -0.285921        2.481753
 H         0.809094        0.009252        2.974797
3
 generated by VMD
 N        -0.036277       -0.291410        1.271305
 O        -0.139645       -0.292435        2.518513
 H         0.827081        0.074838        2.966214
3
 generated by VMD
 N        -0.033573       -0.290694        1.260263
 O        -0.109828       -0.297104        2.555428
 H         0.816609        0.127242        2.958245
3
 generated by VMD
 N        -0.034811       -0.289181        1.248205
 O        -0.077175       -0.298856        2.590971
 H         0.778183        0.179982        2.934074
3
 generated by VMD
 N        -0.032562       -0.289219        1.236785
 O        -0.044340       -0.300103        2.627841
 H         0.732471        0.234003        2.904312
3
 generated by VMD
 N        -0.027506       -0.286879        1.227922
 O        -0.009719       -0.302001        2.665151
 H         0.677340        0.272704        2.874619
3
 generated by VMD
 N        -0.019974       -0.282900        1.221086
 O         0.024928       -0.303900        2.703517
 H         0.642401        0.330138        2.862823
3
 generated by VMD
 N        -0.006550       -0.279917        1.213043
 O         0.057534       -0.309079        2.739258
 H         0.639159        0.418656        2.869142
3
 generated by VMD
 N         0.009828       -0.274389        1.205192
 O         0.092294       -0.313727        2.773000
 H         0.633894        0.522901        2.874142
3
 generated by VMD
 N         0.029296       -0.267905        1.199176
 O         0.126872       -0.318836        2.802328
 H         0.623757        0.600023        2.873182
3
 generated by VMD
 N         0.052286       -0.259331        1.195468
 O         0.163273       -0.320775        2.829524
 H         0.609861        0.656455        2.877979
3
 generated by VMD
 N         0.073700       -0.254982        1.195526
 O         0.203837       -0.323060        2.853606
 H         0.586543        0.676075        2.885427
3
 generated by VMD
 N         0.096719       -0.250190        1.197251
 O         0.243956       -0.324317        2.876021
 H         0.553915        0.661140        2.888338
3
 generated by VMD
 N         0.118960       -0.245248        1.202697
 O         0.282156       -0.322092        2.893862
 H         0.513088        0.618017        2.905770
3
 generated by VMD
 N         0.140395       -0.240052        1.209170
 O         0.319747       -0.321216        2.907109
 H         0.471502        0.584757        2.929805
3
 generated by VMD
 N         0.162981       -0.236791        1.219124
 O         0.354656       -0.321228        2.915562
 H         0.435785        0.586673        2.956858
3
 generated by VMD
 N         0.186080       -0.231569        1.231314
 O         0.387406       -0.325160        2.918628
 H         0.390935        0.625927        2.995528
3
 generated by VMD
 N         0.209012       -0.228883        1.249261
 O         0.421165       -0.325808        2.921190
 H         0.348465        0.679032        3.040249
3
 generated by VMD
 N         0.229899       -0.227353        1.263113
 O         0.451725       -0.323666        2.917067
 H         0.303191        0.713757        3.095066
3
 generated by VMD
 N         0.249408       -0.226560        1.278571
 O         0.476951       -0.316210        2.908815
 H         0.261242        0.734820        3.132753
3
 generated by VMD
 N         0.269505       -0.226168        1.296646
 O         0.501213       -0.304337        2.899769
 H         0.223070        0.727204        3.151457
3
 generated by VMD
 N         0.290477       -0.228865        1.318852
 O         0.524682       -0.291526        2.890264
 H         0.198812        0.688878        3.162118
3
 generated by VMD
 N         0.311765       -0.229908        1.344253
 O         0.545651       -0.276737        2.878683
 H         0.183435        0.624771        3.168186
3
 generated by VMD
 N         0.335644       -0.232259        1.376350
 O         0.564157       -0.262258        2.862169
 H         0.173508        0.537220        3.168476
3
 generated by VMD
 N         0.360652       -0.231980        1.410840
 O         0.583816       -0.247406        2.842108
 H         0.149387        0.456698        3.170898
3
 generated by VMD
 N         0.387967       -0.235147        1.448344
 O         0.606483       -0.236284        2.816883
 H         0.112232        0.415581        3.193230
3
 generated by VMD
 N         0.416183       -0.241045        1.484746
 O         0.628985       -0.227959        2.791756
 H         0.046464        0.407479        3.231879
3
 generated by VMD
 N         0.443219       -0.245013        1.522712
 O         0.653749       -0.220188        2.765452
 H        -0.022869        0.394964        3.272176
3
 generated by VMD
 N         0.468084       -0.247735        1.563047
 O         0.677362       -0.210984        2.741646
 H        -0.073223        0.360869        3.302475
3
 generated by VMD
 N         0.489993       -0.252263        1.598509
 O         0.700138       -0.199069        2.719410
 H        -0.108352        0.309811        3.322630
3
 generated by VMD
 N         0.514308       -0.260081        1.624072
 O         0.723155       -0.183876        2.704982
 H        -0.119832        0.254313        3.314905
3
 generated by VMD
 N         0.538428       -0.265518        1.643084
 O         0.746165       -0.169030        2.702405
 H        -0.123838        0.190495        3.296361
3
 generated by VMD
 N         0.558480       -0.269247        1.651082
 O         0.767484       -0.154973        2.712243
 H        -0.118341        0.119197        3.268280
3
 generated by VMD
 N         0.575327       -0.273813        1.644937
 O         0.790376       -0.142252        2.733605
 H        -0.101363        0.036587        3.240740
3
 generated by VMD
 N         0.590287       -0.279962        1.628692
 O         0.812588       -0.129465        2.764831
 H        -0.074540       -0.044291        3.212515
3
 generated by VMD
 N         0.603246       -0.288976        1.609242
 O         0.836099       -0.116664        2.800916
 H        -0.044967       -0.127929        3.190509
3
 generated by VMD
 N         0.618654       -0.296194        1.587806
 O         0.859737       -0.104620        2.838753
 H        -0.024119       -0.206491        3.186424
3
 generated by VMD
 N         0.631076       -0.301624        1.563768
 O         0.884978       -0.090292        2.877614
 H        -0.011966       -0.282681        3.190563
3
 generated by VMD
 N         0.645248       -0.306435        1.536790
 O         0.908897       -0.078078        2.915389
 H         0.013093       -0.352743        3.188614
3
 generated by VMD
 N         0.659759       -0.308962        1.515067
 O         0.933556       -0.066071        2.951528
 H         0.040168       -0.411002        3.180701
3
 generated by VMD
 N         0.677690       -0.312785        1.499209
 O         0.955620       -0.053328        2.983852
 H         0.076289       -0.464048        3.186921
3
 generated by VMD
 N         0.693765       -0.309483        1.488952
 O         0.980276       -0.044625        3.013609
 H         0.123292       -0.509954        3.202915
3
 generated by VMD
 N         0.705259       -0.307561        1.484678
 O         1.006566       -0.038634        3.040119
 H         0.182190       -0.553663        3.222841
3
 generated by VMD
 N         0.718864       -0.308032        1.482306
 O         1.032463       -0.034594        3.061717
 H         0.236139       -0.588253        3.251493
3
 generated by VMD
 N         0.731475       -0.308404        1.483983
 O         1.056882       -0.031930        3.075674
 H         0.287867       -0.608766        3.280523
3
 generated by VMD
 N         0.746936       -0.310144        1.491157
 O         1.076652       -0.028227        3.086679
 H         0.337614       -0.616128        3.307613
3
 generated by VMD
 N         0.762787       -0.310028        1.501108
 O         1.090232       -0.022819        3.090693
 H         0.398607       -0.625780        3.347199
3
 generated by VMD
 N         0.780782       -0.308318        1.515758
 O         1.104006       -0.017390        3.089500
 H         0.453774       -0.646941        3.408565
3
 generated by VMD
 N         0.800488       -0.303742        1.533006
 O         1.118143       -0.013783        3.085277
 H         0.502699       -0.657377        3.465081
3
 generated by VMD
 N         0.821189       -0.299373        1.556398
 O         1.133996       -0.010597        3.079710
 H         0.544773       -0.673169        3.526320
3
 generated by VMD
 N         0.838128       -0.295810        1.586019
 O         1.149468       -0.006225        3.072118
 H         0.584414       -0.700127        3.567379
3
 generated by VMD
 N         0.854448       -0.292463        1.620948
 O         1.163142       -0.002336        3.062418
 H         0.640458       -0.723853        3.585461
3
 generated by VMD
 N         0.867472       -0.294273        1.660224
 O         1.175591        0.002135        3.051821
 H         0.704097       -0.734036        3.584093
3
 generated by VMD
 N         0.879385       -0.292206        1.703796
 O         1.186116        0.009038        3.039228
 H         0.764918       -0.722222        3.577942
3
 generated by VMD
 N         0.888453       -0.290617        1.751771
 O         1.199928        0.016072        3.021860
 H         0.824524       -0.694256        3.560701
3
 generated by VMD
 N         0.900256       -0.293137        1.799965
 O         1.213619        0.027366        3.002968
 H         0.876673       -0.675690        3.540420
3
 generated by VMD
 N         0.912646       -0.296910        1.845416
 O         1.228908        0.036692        2.983335
 H         0.931928       -0.668617        3.533425
3
 generated by VMD
 N         0.924925       -0.301021        1.887473
 O         1.243127        0.046727        2.962806
 H         0.976779       -0.671594        3.543709
3
 generated by VMD
 N         0.937539       -0.306776        1.924408
 O         1.258668        0.061772        2.945242
 H         1.017936       -0.673534        3.560001
3
 generated by VMD
 N         0.949999       -0.321484        1.952265
 O         1.277238        0.078492        2.934076
 H         1.063877       -0.681995        3.587667
3
 generated by VMD
 N         0.960041       -0.337818        1.968444
 O         1.297715        0.095215        2.928268
 H         1.118537       -0.687703        3.620112
3
 generated by VMD
 N         0.970050       -0.356531        1.976432
 O         1.318866        0.112355        2.931164
 H         1.186382       -0.672306        3.652599
3
 generated by VMD
 N         0.975632       -0.380082        1.975627
 O         1.342739        0.134451        2.940208
 H         1.259385       -0.652426        3.684564
3
 generated by VMD
 N         0.979650       -0.404580        1.970082
 O         1.367953        0.156252        2.958187
 H         1.348366       -0.605609        3.715309
3
 generated by VMD
 N         0.981729       -0.431958        1.961141
 O         1.395814        0.174811        2.980476
 H         1.442471       -0.554370        3.740717
3
 generated by VMD
 N         0.983739       -0.458227        1.954178
 O         1.423600        0.193652        3.005860
 H         1.529394       -0.486547        3.751195
3
 generated by VMD
 N         0.981941       -0.482819        1.947290
 O         1.447064        0.209415        3.032123
 H         1.613299       -0.410184        3.748521
3
 generated by VMD
 N         0.979916       -0.510003        1.943073
 O         1.468519        0.224359        3.056696
 H         1.692866       -0.344046        3.736778
3
 generated by VMD
 N         0.975617       -0.535555        1.940834
 O         1.487770        0.237232        3.076617
 H         1.790737       -0.307784        3.738593
3
 generated by VMD
 N         0.973860       -0.559927        1.943978
 O         1.508168        0.250192        3.091596
 H         1.888398       -0.293153        3.761465
3
 generated by VMD
 N         0.973890       -0.581462        1.949089
 O         1.526671        0.264021        3.103939
 H         1.996649       -0.294675        3.784790
3
 generated by VMD
 N         0.979593       -0.602840        1.953504
 O         1.540244        0.277330        3.113012
 H         2.100966       -0.300532        3.785313
3
 generated by VMD
 N         0.986451       -0.620905        1.961397
 O         1.550803        0.289104        3.118271
 H         2.190302       -0.293360        3.765231
3
 generated by VMD
 N         0.995173       -0.636612        1.969163
 O         1.564717        0.295912        3.118375
 H         2.252560       -0.272894        3.724376
3
 generated by VMD
 N         1.004376       -0.651137        1.981235
 O         1.578211        0.301110        3.117899
 H         2.289508       -0.233396        3.661411
3
 generated by VMD
 N         1.013994       -0.660752        1.996652
 O         1.593457        0.305461        3.115408
 H         2.314862       -0.181391        3.590643
3
 generated by VMD
 N         1.026293       -0.667788        2.014586
 O         1.609426        0.310818        3.109143
 H         2.320748       -0.123379        3.510136
3
 generated by VMD
 N         1.042484       -0.670049        2.033671
 O         1.622124        0.310499        3.096966
 H         2.346180       -0.082150        3.431777
3
 generated by VMD
 N         1.059023       -0.669975        2.053895
 O         1.631499        0.310873        3.082633
 H         2.410310       -0.061148        3.354447
3
 generated by VMD
 N         1.076399       -0.667910        2.075720
 O         1.640136        0.312645        3.065043
 H         2.494805       -0.067921        3.291418
3
 generated by VMD
 N         1.092918       -0.663946        2.100363
 O         1.649117        0.313465        3.045755
 H         2.578540       -0.069532        3.224324
3
 generated by VMD
 N         1.108308       -0.657674        2.125803
 O         1.655900        0.312459        3.024970
 H         2.645545       -0.074814        3.154628
3
 generated by VMD
 N         1.120893       -0.647036        2.148252
 O         1.667235        0.309519        3.001784
 H         2.672154       -0.074203        3.072325
3
 generated by VMD
 N         1.134305       -0.635818        2.167859
 O         1.678834        0.306621        2.977388
 H         2.669459       -0.061667        2.997167
3
 generated by VMD
 N         1.151206       -0.622843        2.187181
 O         1.693518        0.302525        2.952796
 H         2.639514       -0.041090        2.911417
3
 generated by VMD
 N         1.172451       -0.604829        2.207859
 O         1.709755        0.296948        2.927059
 H         2.599173       -0.009770        2.824493
3
 generated by VMD
 N         1.194524       -0.586795        2.228405
 O         1.726658        0.291172        2.903011
 H         2.575298        0.046773        2.749409
3
 generated by VMD
 N         1.215207       -0.572329        2.244839
 O         1.739376        0.289517        2.877695
 H         2.608566        0.125383        2.677117
3
 generated by VMD
 N         1.231059       -0.561512        2.259179
 O         1.755126        0.291462        2.850347
 H         2.671769        0.213243        2.599432
3
 generated by VMD
 N         1.241785       -0.555838        2.268290
 O         1.773961        0.297301        2.826573
 H         2.758743        0.302584        2.533015
3
 generated by VMD
 N         1.249679       -0.555107        2.273785
 O         1.800510        0.310423        2.804521
 H         2.823986        0.402217        2.461811
3
 generated by VMD
 N         1.253708       -0.559856        2.271608
 O         1.830549        0.328811        2.783970
 H         2.858030        0.507012        2.387255
3
 generated by VMD
 N         1.255887       -0.569823        2.266516
 O         1.862033        0.350505        2.764838
 H         2.870566        0.599739        2.314183
3
 generated by VMD
 N         1.255651       -0.585759        2.259457
 O         1.899328        0.374638        2.747578
 H         2.852125        0.678753        2.258353
3
 generated by VMD
 N         1.255188       -0.601235        2.251967
 O         1.942519        0.401239        2.729947
 H         2.802412        0.742401        2.216880
3
 generated by VMD
 N         1.254146       -0.615711        2.243258
 O         1.986864        0.431492        2.710409
 H         2.702199        0.799131        2.174915
3
 generated by VMD
 N         1.256503       -0.630794        2.234391
 O         2.031661        0.460772        2.691901
 H         2.604930        0.853162        2.128453
3
 generated by VMD
 N         1.259624       -0.644956        2.224176
 O         2.075258        0.484884        2.675897
 H         2.532101        0.928398        2.049545
3
 generated by VMD
 N         1.265745       -0.655315        2.213891
 O         2.114429        0.503734        2.660665
 H         2.494803        1.005244        1.937567
3
 generated by VMD
 N         1.274406       -0.662182        2.206628
 O         2.152864        0.522066        2.645080
 H         2.451732        1.075153        1.811261
3
 generated by VMD
 N         1.287616       -0.668116        2.195852
 O         2.192401        0.538157        2.630988
 H         2.401944        1.121731        1.702446
3
 generated by VMD
 N         1.302055       -0.670467        2.189281
 O         2.233202        0.551746        2.614281
 H         2.349384        1.157683        1.624181
3
 generated by VMD
 N         1.318669       -0.670506        2.183681
 O         2.272889        0.562435        2.595151
 H         2.296687        1.170034        1.578216
3
 generated by VMD
 N         1.335677       -0.668018        2.179875
 O         2.310026        0.569504        2.571030
 H         2.237314        1.169760        1.569058
3
 generated by VMD
 N         1.353889       -0.662215        2.179677
 O         2.342088        0.572820        2.545237
 H         2.188838        1.138904        1.593307
3
 generated by VMD
 N         1.375916       -0.656057        2.179875
 O         2.368887        0.574119        2.512465
 H         2.138381        1.089936        1.662729
3
 generated by VMD
 N         1.400774       -0.649194        2.181236
 O         2.392385        0.574641        2.478877
 H         2.093333        1.028036        1.757468
3
 generated by VMD
 N         1.425966       -0.639132        2.184046
 O         2.413405        0.573514        2.443161
 H         2.037142        0.980090        1.815029
3
 generated by VMD
 N         1.452893       -0.623016        2.186553
 O         2.434705        0.566331        2.412257
 H         1.948213        0.980740        1.793942
3
 generated by VMD
 N         1.480784       -0.602100        2.191284
 O         2.455958        0.556286        2.384298
 H         1.840390        1.026949        1.729045
3
 generated by VMD
 N         1.508802       -0.577974        2.194515
 O         2.475506        0.545819        2.355941
 H         1.749260        1.081140        1.666306
3
 generated by VMD
 N         1.537742       -0.549981        2.198923
 O         2.490941        0.536719        2.322212
 H         1.697942        1.126305        1.630751
3
 generated by VMD
 N         1.568296       -0.522291        2.197835
 O         2.502062        0.530668        2.282502
 H         1.673144        1.152279        1.619263
3
 generated by VMD
 N         1.600277       -0.492310        2.194256
 O         2.509243        0.524871        2.240146
 H         1.688038        1.148748        1.649050
3
 generated by VMD
 N         1.631810       -0.462020        2.190974
 O         2.511786        0.517486        2.196035
 H         1.750744        1.117202        1.690816
3
 generated by VMD
 N         1.664705       -0.434941        2.192873
 O         2.511468        0.513315        2.150387
 H         1.838848        1.072672        1.734536
3
 generated by VMD
 N         1.697962       -0.408748        2.197868
 O         2.512632        0.511224        2.103785
 H         1.928956        1.047442        1.765325
3
 generated by VMD
 N         1.725886       -0.387920        2.202578
 O         2.518103        0.510521        2.058064
 H         1.975044        1.094704        1.762590
3
 generated by VMD
 N         1.747537       -0.373327        2.207901
 O         2.530474        0.506410        2.012984
 H         1.982498        1.202457        1.735402
3
 generated by VMD
 N         1.768002       -0.364401        2.213035
 O         2.544173        0.507836        1.966116
 H         1.985944        1.343859        1.702695
3
 generated by VMD
 N         1.783564       -0.360061        2.217974
 O         2.559229        0.514224        1.920124
 H         2.008545        1.481774        1.674128
3
 generated by VMD
 N         1.798189       -0.355574        2.223329
 O         2.573050        0.528806        1.875410
 H         2.056672        1.582242        1.649412
3
 generated by VMD
 N         1.813044       -0.353238        2.230083
 O         2.586669        0.545220        1.829156
 H         2.108305        1.662753        1.627080
3
 generated by VMD
 N         1.827665       -0.347502        2.237848
 O         2.600361        0.562918        1.782041
 H         2.176172        1.712914        1.596429
3
 generated by VMD
 N         1.839645       -0.341135        2.245445
 O         2.614188        0.582801        1.733688
 H         2.239435        1.733846        1.578322
3
 generated by VMD
 N         1.854215       -0.335794        2.256709
 O         2.627208        0.602659        1.686544
 H         2.313120        1.711614        1.550753
3
 generated by VMD
 N         1.868455       -0.330272        2.264121
 O         2.642752        0.626380        1.640477
 H         2.391517        1.639155        1.526842
3
 generated by VMD
 N         1.882201       -0.322236        2.275951
 O         2.655027        0.651175        1.593596
 H         2.467185        1.537942        1.501752
3
 generated by VMD
 N         1.894250       -0.311749        2.287483
 O         2.668865        0.671481        1.550971
 H         2.526513        1.477378        1.479248
3
 generated by VMD
 N         1.909015       -0.299275        2.300097
 O         2.683030        0.681506        1.506218
 H         2.554154        1.545213        1.458549
3
 generated by VMD
 N         1.925824       -0.284300        2.313074
 O         2.699357        0.687655        1.464833
 H         2.550711        1.669363        1.446265
3
 generated by VMD
 N         1.943783       -0.265087        2.322428
 O         2.711775        0.693318        1.422225
 H         2.541905        1.780039        1.439002
3
 generated by VMD
 N         1.963048       -0.242795        2.327482
 O         2.720651        0.700191        1.381535
 H         2.530216        1.859167        1.436061
3
 generated by VMD
 N         1.983792       -0.212887        2.329276
 O         2.731881        0.708760        1.343068
 H         2.517523        1.882102        1.436129
3
 generated by VMD
 N         2.006248       -0.181918        2.328462
 O         2.741181        0.714944        1.305409
 H         2.514018        1.851406        1.428489
3
 generated by VMD
 N         2.035071       -0.150930        2.327715
 O         2.749759        0.722802        1.269921
 H         2.516980        1.777745        1.425308
3
 generated by VMD
 N         2.066837       -0.118255        2.326881
 O         2.755587        0.729871        1.237005
 H         2.529070        1.665384        1.435919
3
 generated by VMD
 N         2.101270       -0.086428        2.324570
 O         2.756006        0.734309        1.204952
 H         2.540568        1.548750        1.433291
3
 generated by VMD
 N         2.136893       -0.055531        2.320902
 O         2.754609        0.732067        1.176574
 H         2.532301        1.493732        1.458755
3
 generated by VMD
 N         2.169702       -0.024810        2.312439
 O         2.753865        0.721488        1.149998
 H         2.501742        1.530894        1.505261
3
 generated by VMD
 N         2.205834        0.008156        2.303921
 O         2.752956        0.708762        1.127809
 H         2.467885        1.594414        1.561911
3
 generated by VMD
 N         2.243315        0.039448        2.293478
 O         2.749671        0.692746        1.109571
 H         2.454562        1.648024        1.606872
3
 generated by VMD
 N         2.281655        0.075253        2.284130
 O         2.743971        0.675456        1.092412
 H         2.451020        1.670418        1.624290
3
 generated by VMD
 N         2.320963        0.113651        2.271378
 O         2.737248        0.663708        1.082919
 H         2.463531        1.662713        1.597355
3
 generated by VMD
 N         2.359361        0.149934        2.257892
 O         2.726979        0.653286        1.076833
 H         2.487026        1.623365        1.547895
3
 generated by VMD
 N         2.396101        0.185882        2.243677
 O         2.716284        0.642766        1.076328
 H         2.521419        1.567343        1.461629
3
 generated by VMD
 N         2.436870        0.217203        2.227407
 O         2.703667        0.633281        1.075628
 H         2.565775        1.513212        1.352608
3
 generated by VMD
 N         2.477276        0.244274        2.217871
 O         2.694670        0.625625        1.072954
 H         2.628629        1.489133        1.229610
3
 generated by VMD
 N         2.519604        0.267179        2.213818
 O         2.684146        0.613319        1.068713
 H         2.671428        1.523025        1.085391
3
 generated by VMD
 N         2.561817        0.290065        2.212318
 O         2.675499        0.603682        1.063766
 H         2.718862        1.592092        0.929151
3
 generated by VMD
 N         2.603930        0.312017        2.217033
 O         2.668725        0.597025        1.050474
 H         2.767663        1.660585        0.773079
3
 generated by VMD
 N         2.643763        0.332259        2.223588
 O         2.661427        0.594639        1.030571
 H         2.825964        1.698009        0.627770
3
 generated by VMD
 N         2.682838        0.353046        2.232383
 O         2.654826        0.594797        1.010510
 H         2.876125        1.688648        0.506886
3
 generated by VMD
 N         2.722006        0.375528        2.240535
 O         2.648878        0.595692        0.986053
 H         2.929103        1.649560        0.404231
3
 generated by VMD
 N         2.758380        0.398673        2.249312
 O         2.639992        0.600431        0.960400
 H         2.984001        1.591088        0.336850
3
 generated by VMD
 N         2.791140        0.422118        2.259273
 O         2.633314        0.604574        0.931567
 H         3.030434        1.515995        0.310154
3
 generated by VMD
 N         2.822925        0.445404        2.267380
 O         2.627281        0.607129        0.902481
 H         3.072260        1.411676        0.317492
3
 generated by VMD
 N         2.849466        0.469715        2.273911
 O         2.619079        0.608053        0.878401
 H         3.089842        1.278313        0.348326
3
 generated by VMD
 N         2.877418        0.495457        2.274701
 O         2.614420        0.606962        0.854638
 H         3.123412        1.141659        0.396467
3
 generated by VMD
 N         2.906825        0.520099        2.274437
 O         2.605114        0.602678        0.834542
 H         3.207287        1.045093        0.424649
3
 generated by VMD
 N         2.936727        0.544518        2.271666
 O         2.595023        0.593833        0.821337
 H         3.344689        0.999867        0.413019
3
 generated by VMD
 N         2.962806        0.568697        2.264577
 O         2.583372        0.584414        0.813933
 H         3.480113        0.963985        0.400419
3
 generated by VMD
 N         2.987556        0.589996        2.255065
 O         2.568768        0.576974        0.806199
 H         3.591846        0.910324        0.394791
3
 generated by VMD
 N         3.011979        0.611645        2.240563
 O         2.555656        0.572209        0.800457
 H         3.657245        0.844983        0.409868
3
 generated by VMD
 N         3.036760        0.631070        2.222256
 O         2.544603        0.568826        0.796933
 H         3.662872        0.777181        0.445600
3
 generated by VMD
 N         3.055943        0.651257        2.203749
 O         2.534943        0.565430        0.795295
 H         3.633973        0.694993        0.475913
3
 generated by VMD
 N         3.075221        0.667217        2.179877
 O         2.529984        0.563934        0.795162
 H         3.558514        0.601252        0.512406
3
 generated by VMD
 N         3.096614        0.682574        2.152622
 O         2.528826        0.563702        0.795043
 H         3.444530        0.503390        0.542140
3
 generated by VMD
 N         3.118540        0.698469        2.123691
 O         2.530711        0.564804        0.795183
 H         3.343801        0.417994        0.551518
3
 generated by VMD
 N         3.139570        0.715618        2.092513
 O         2.529021        0.569455        0.797554
 H         3.296889        0.328715        0.528888
3
 generated by VMD
 N         3.158532        0.732995        2.057353
 O         2.526605        0.575503        0.803365
 H         3.336978        0.218136        0.467643
3
 generated by VMD
 N         3.177873        0.752111        2.024016
 O         2.522726        0.579985        0.814914
 H         3.379734        0.090069        0.388882
3
 generated by VMD
 N         3.196129        0.772358        1.991398
 O         2.524936        0.585036        0.824996
 H         3.391696       -0.029226        0.321909
3
 generated by VMD
 N         3.213304        0.793676        1.957203
 O         2.529147        0.588614        0.834401
 H         3.371975       -0.136647        0.269677
3
 generated by VMD
 N         3.230305        0.818058        1.924947
 O         2.539129        0.588519        0.845867
 H         3.329819       -0.202644        0.231228
3
 generated by VMD
 N         3.242179        0.843928        1.894436
 O         2.548642        0.584107        0.859760
 H         3.260808       -0.252867        0.213942
3
 generated by VMD
 N         3.254261        0.867356        1.862019
 O         2.562549        0.578255        0.871865
 H         3.155655       -0.273334        0.208625
3
 generated by VMD
 N         3.266104        0.891071        1.832334
 O         2.577924        0.569919        0.883343
 H         3.035053       -0.271061        0.217986
3
 generated by VMD
 N         3.274501        0.915338        1.807132
 O         2.592725        0.556737        0.895710
 H         2.901165       -0.242020        0.240735
3
 generated by VMD
 N         3.288030        0.941167        1.783063
 O         2.604942        0.540334        0.904092
 H         2.760309       -0.206119        0.291455
3
 generated by VMD
 N         3.305095        0.965671        1.762398
 O         2.614876        0.522605        0.905674
 H         2.620256       -0.177454        0.343297
3
 generated by VMD
 N         3.329741        0.993217        1.747347
 O         2.620683        0.509446        0.905048
 H         2.500148       -0.188632        0.378631
3
 generated by VMD
 N         3.356451        1.022232        1.737909
 O         2.625960        0.498901        0.903886
 H         2.384604       -0.246989        0.396495
3
 generated by VMD
 N         3.385750        1.050266        1.730608
 O         2.629548        0.491745        0.901608
 H         2.278497       -0.329648        0.403873
3
 generated by VMD
 N         3.413627        1.077367        1.721718
 O         2.632216        0.485113        0.897232
 H         2.186620       -0.410028        0.440985
3
 generated by VMD
 N         3.440829        1.105248        1.715349
 O         2.632697        0.479483        0.891434
 H         2.117487       -0.472827        0.493015
3
 generated by VMD
 N         3.466520        1.130628        1.706958
 O         2.629676        0.473999        0.882548
 H         2.066818       -0.502155        0.567733
3
 generated by VMD
 N         3.489050        1.155585        1.697098
 O         2.623140        0.467625        0.873210
 H         2.051021       -0.487223        0.664660
3
 generated by VMD
 N         3.511141        1.179178        1.685219
 O         2.613994        0.460608        0.864143
 H         2.066249       -0.430435        0.778640
3
 generated by VMD
 N         3.533372        1.202430        1.676103
 O         2.603579        0.454129        0.852432
 H         2.102237       -0.337589        0.908522
3
 generated by VMD
 N         3.554971        1.222768        1.662385
 O         2.592754        0.449481        0.841982
 H         2.132122       -0.269175        1.064572
3
 generated by VMD
 N         3.573451        1.242755        1.648218
 O         2.581654        0.449187        0.831694
 H         2.134264       -0.240729        1.240593
3
 generated by VMD
 N         3.587841        1.262631        1.630812
 O         2.575081        0.454026        0.820173
 H         2.117083       -0.222929        1.434043
3
 generated by VMD
 N         3.597558        1.279090        1.613717
 O         2.568624        0.459481        0.807923
 H         2.127311       -0.192006        1.610561
3
 generated by VMD
 N         3.605142        1.294700        1.593631
 O         2.564978        0.461740        0.798536
 H         2.164663       -0.126443        1.761789
3
 generated by VMD
 N         3.612463        1.306169        1.571892
 O         2.560884        0.462977        0.795920
 H         2.217833       -0.041620        1.883297
3
 generated by VMD
 N         3.609375        1.315816        1.547934
 O         2.555935        0.465977        0.797087
 H         2.288099        0.059143        1.952152
3
 generated by VMD
 N         3.601810        1.321774        1.521645
 O         2.552253        0.466798        0.803843
 H         2.372640        0.161209        1.957863
3
 generated by VMD
 N         3.594673        1.329317        1.492581
 O         2.552964        0.467204        0.813786
 H         2.450161        0.260918        1.915702
3
 generated by VMD
 N         3.588572        1.335307        1.459863
 O         2.557131        0.469746        0.825513
 H         2.528043        0.358970        1.836559
3
 generated by VMD
 N         3.579982        1.340457        1.426492
 O         2.563473        0.474960        0.840054
 H         2.587996        0.445245        1.749015
3
 generated by VMD
 N         3.573277        1.344870        1.390239
 O         2.569579        0.481301        0.854395
 H         2.609509        0.517104        1.703907
3
 generated by VMD
 N         3.566993        1.349972        1.352617
 O         2.575161        0.488038        0.866734
 H         2.607557        0.567939        1.766234
3
 generated by VMD
 N         3.562814        1.356092        1.313347
 O         2.581975        0.496834        0.879773
 H         2.575031        0.592742        1.884357
3
 generated by VMD
 N         3.557028        1.361261        1.274902
 O         2.590418        0.507164        0.893886
 H         2.512407        0.614782        1.984879
3
 generated by VMD
 N         3.552146        1.366561        1.236808
 O         2.601270        0.522548        0.913860
 H         2.437023        0.622243        2.055167
3
 generated by VMD
 N         3.548681        1.371704        1.195102
 O         2.610887        0.539031        0.935883
 H         2.364016        0.611219        2.082456
3
 generated by VMD
 N         3.542850        1.377801        1.153173
 O         2.617492        0.556635        0.960138
 H         2.295624        0.583176        2.067528
3
 generated by VMD
 N         3.536827        1.383793        1.113267
 O         2.622206        0.574527        0.988978
 H         2.227705        0.548540        2.018505
3
 generated by VMD
 N         3.532160        1.391775        1.072069
 O         2.625486        0.590133        1.019935
 H         2.160212        0.494676        1.938587
3
 generated by VMD
 N         3.527246        1.401080        1.034362
 O         2.624405        0.604446        1.056708
 H         2.106590        0.438606        1.851056
3
 generated by VMD
 N         3.522935        1.410764        0.996542
 O         2.619596        0.621139        1.088879
 H         2.040332        0.388018        1.775584
3
 generated by VMD
 N         3.520116        1.424178        0.958107
 O         2.612741        0.632886        1.119904
 H         1.965653        0.343155        1.722424
3
 generated by VMD
 N         3.520051        1.439832        0.919249
 O         2.606586        0.643248        1.147927
 H         1.881995        0.305091        1.700440
3
 generated by VMD
 N         3.519385        1.459180        0.882756
 O         2.596774        0.651771        1.180836
 H         1.806062        0.277485        1.686323
3
 generated by VMD
 N         3.520603        1.474794        0.847890
 O         2.583375        0.658072        1.216775
 H         1.755429        0.266873        1.666311
3
 generated by VMD
 N         3.521931        1.488053        0.815418
 O         2.571371        0.661950        1.249643
 H         1.734988        0.282974        1.637085
3
 generated by VMD
 N         3.521398        1.498631        0.781622
 O         2.559201        0.665090        1.281992
 H         1.727351        0.315954        1.613372
3
 generated by VMD
 N         3.519031        1.505202        0.749605
 O         2.550416        0.668921        1.311864
 H         1.713151        0.354978        1.585163
3
 generated by VMD
 N         3.515576        1.514268        0.717415
 O         2.544954        0.677052        1.341099
 H         1.687577        0.407953        1.559297
3
 generated by VMD
 N         3.511110        1.521336        0.684627
 O         2.543675        0.686109        1.370326
 H         1.635144        0.470090        1.522693
3
 generated by VMD
 N         3.501824        1.527342        0.655301
 O         2.549834        0.694229        1.401688
 H         1.583912        0.549317        1.470048
3
 generated by VMD
 N         3.486942        1.533038        0.630970
 O         2.557587        0.703583        1.431859
 H         1.531778        0.634506        1.390925
3
 generated by VMD
 N         3.467718        1.536409        0.605856
 O         2.568294        0.714777        1.459383
 H         1.501495        0.728385        1.299803
3
 generated by VMD
 N         3.443633        1.541432        0.584926
 O         2.576756        0.727757        1.485500
 H         1.505394        0.820261        1.222028
3
 generated by VMD
 N         3.417786        1.545368        0.564594
 O         2.584502        0.743636        1.508181
 H         1.550954        0.915363        1.163345
3
 generated by VMD
 N         3.389461        1.547380        0.546759
 O         2.588912        0.760527        1.530020
 H         1.624960        0.998874        1.121405
3
 generated by VMD
 N         3.359849        1.547993        0.531484
 O         2.593712        0.781131        1.549099
 H         1.718671        1.064551        1.097210
3
 generated by VMD
 N         3.331637        1.549619        0.518276
 O         2.597160        0.801436        1.566554
 H         1.810542        1.119398        1.090357
3
 generated by VMD
 N         3.306098        1.554239        0.506310
 O         2.599578        0.824129        1.583047
 H         1.903986        1.170447        1.095145
3
 generated by VMD
 N         3.279685        1.560633        0.499157
 O         2.604918        0.846994        1.598980
 H         1.959353        1.216048        1.095524
3
 generated by VMD
 N         3.254631        1.565428        0.495535
 O         2.616980        0.868378        1.616440
 H         1.950262        1.271322        1.086455
3
 generated by VMD
 N         3.232028        1.570386        0.495652
 O         2.632078        0.886973        1.633573
 H         1.906484        1.321080        1.086402
3
 generated by VMD
 N         3.213253        1.573627        0.500578
 O         2.648050        0.909723        1.649013
 H         1.852548        1.345156        1.101419
3
 generated by VMD
 N         3.194919        1.576004        0.504540
 O         2.664939        0.933833        1.659821
 H         1.798750        1.354288        1.139969
3
 generated by VMD
 N         3.175451        1.577419        0.509361
 O         2.683508        0.959138        1.668539
 H         1.761797        1.349930        1.207985
3
 generated by VMD
 N         3.157732        1.576912        0.515315
 O         2.697464        0.988131        1.675205
 H         1.748599        1.322663        1.304504
3
 generated by VMD
 N         3.143817        1.576433        0.525023
 O         2.707903        1.019963        1.678201
 H         1.757352        1.276217        1.426131
3
 generated by VMD
 N         3.130846        1.576154        0.538246
 O         2.717728        1.052744        1.676308
 H         1.765027        1.220031        1.560904
3
 generated by VMD
 N         3.114622        1.574973        0.550200
 O         2.731469        1.085951        1.673611
 H         1.768454        1.155706        1.692046
3
 generated by VMD
 N         3.103217        1.575880        0.563340
 O         2.744255        1.119062        1.671828
 H         1.756441        1.082796        1.828326
3
 generated by VMD
 N         3.091147        1.579656        0.574416
 O         2.756790        1.149567        1.675367
 H         1.761548        1.030258        1.966311
3
 generated by VMD
 N         3.079911        1.583617        0.582733
 O         2.765013        1.181700        1.678049
 H         1.768958        0.983030        2.092745
3
 generated by VMD
 N         3.067243        1.587716        0.584251
 O         2.768893        1.214538        1.686318
 H         1.783851        0.956393        2.207601
3
 generated by VMD
 N         3.054566        1.593870        0.583355
 O         2.773843        1.247195        1.698076
 H         1.829507        0.942494        2.300502
3
 generated by VMD
 N         3.040281        1.597449        0.579895
 O         2.776962        1.280777        1.715042
 H         1.894086        0.945957        2.361657
3
 generated by VMD
 N         3.028811        1.602647        0.574251
 O         2.779388        1.312689        1.738769
 H         1.975147        0.964490        2.389004
3
 generated by VMD
 N         3.019574        1.609201        0.567189
 O         2.781280        1.347141        1.767289
 H         2.081033        0.991997        2.384416
3
 generated by VMD
 N         3.010211        1.615816        0.554382
 O         2.782492        1.379593        1.799397
 H         2.195141        1.033091        2.362071
3
 generated by VMD
 N         3.004033        1.621706        0.543624
 O         2.791765        1.414848        1.827265
 H         2.264199        1.059371        2.354529
3
 generated by VMD
 N         2.993540        1.624403        0.533720
 O         2.805111        1.450786        1.853938
 H         2.262823        1.031060        2.396342
3
 generated by VMD
 N         2.981151        1.628749        0.528221
 O         2.822335        1.488970        1.879251
 H         2.216858        0.961578        2.468445
3
 generated by VMD
 N         2.969865        1.632712        0.527468
 O         2.840613        1.525475        1.901098
 H         2.165415        0.891869        2.524823
3
 generated by VMD
 N         2.960679        1.637422        0.526240
 O         2.855297        1.561234        1.922606
 H         2.126080        0.849859        2.562133
3
 generated by VMD
 N         2.950131        1.640978        0.526648
 O         2.868927        1.593240        1.945285
 H         2.106866        0.842505        2.569275
3
 generated by VMD
 N         2.939606        1.642213        0.530840
 O         2.884032        1.624913        1.969766
 H         2.118946        0.872391        2.542116
3
 generated by VMD
 N         2.928146        1.643261        0.537355
 O         2.898476        1.654316        1.992365
 H         2.144793        0.935481        2.481452
3
 generated by VMD
 N         2.918023        1.641829        0.547160
 O         2.910264        1.685478        2.011545
 H         2.211317        1.025461        2.394684
3
 generated by VMD
 N         2.909813        1.643094        0.561209
 O         2.923047        1.715332        2.028518
 H         2.301761        1.136449        2.283961
3
 generated by VMD
 N         2.905145        1.641403        0.575684
 O         2.937484        1.747211        2.045518
 H         2.369206        1.201964        2.181620
3
 generated by VMD
 N         2.901497        1.641598        0.590140
 O         2.959643        1.783057        2.055332
 H         2.329179        1.157996        2.111657
3
 generated by VMD
 N         2.897457        1.643825        0.605893
 O         2.984518        1.821462        2.063639
 H         2.254870        1.078179        2.065159
3
 generated by VMD
 N         2.891079        1.644182        0.630425
 O         3.012987        1.854243        2.072073
 H         2.180886        1.018034        2.035375
3
 generated by VMD
 N         2.886362        1.645043        0.653224
 O         3.040139        1.883534        2.076316
 H         2.136861        0.997026        2.006621
3
 generated by VMD
 N         2.881324        1.649784        0.673060
 O         3.067447        1.908896        2.075026
 H         2.132428        0.994561        1.980836
3
 generated by VMD
 N         2.880240        1.654579        0.692817
 O         3.090098        1.932746        2.071838
 H         2.169625        1.025701        1.972846
3
 generated by VMD
 N         2.882484        1.660261        0.712756
 O         3.107692        1.956068        2.065778
 H         2.234770        1.087199        1.979094
3
 generated by VMD
 N         2.882874        1.667022        0.734720
 O         3.119785        1.975894        2.059664
 H         2.335992        1.168449        1.991516
3
 generated by VMD
 N         2.885071        1.671456        0.757466
 O         3.127891        1.994164        2.052103
 H         2.461993        1.279652        2.017019
3
 generated by VMD
 N         2.890389        1.672523        0.776561
 O         3.133197        2.013424        2.041922
 H         2.570851        1.377129        2.079162
3
 generated by VMD
 N         2.895215        1.673785        0.790889
 O         3.141301        2.035548        2.029793
 H         2.606395        1.394678        2.193877
3
 generated by VMD
 N         2.899114        1.674717        0.801588
 O         3.154453        2.061701        2.018104
 H         2.586766        1.346414        2.356591
3
 generated by VMD
 N         2.901312        1.678380        0.812262
 O         3.165302        2.088227        2.008688
 H         2.563958        1.308182        2.521985
3
 generated by VMD
 N         2.900554        1.681350        0.820167
 O         3.175415        2.111200        1.997308
 H         2.576846        1.293526        2.679204
3
 generated by VMD
 N         2.897227        1.679636        0.828080
 O         3.181345        2.130535        1.988617
 H         2.612718        1.314816        2.820906
3
 generated by VMD
 N         2.894046        1.681914        0.834209
 O         3.184414        2.144944        1.983854
 H         2.657365        1.358434        2.934984
3
 generated by VMD
 N         2.891892        1.686016        0.840108
 O         3.185446        2.156539        1.981606
 H         2.708357        1.409479        3.031589
3
 generated by VMD
 N         2.888369        1.689994        0.846156
 O         3.182343        2.167080        1.981347
 H         2.761279        1.489827        3.101269
3
 generated by VMD
 N         2.884667        1.693952        0.850139
 O         3.178742        2.176967        1.980789
 H         2.822043        1.581790        3.133822
3
 generated by VMD
 N         2.881050        1.697444        0.853929
 O         3.177337        2.185023        1.978672
 H         2.885588        1.687338        3.134220
3
 generated by VMD
 N         2.874024        1.700935        0.857150
 O         3.177322        2.195937        1.981110
 H         2.945416        1.793377        3.091302
3
 generated by VMD
 N         2.865849        1.703634        0.859136
 O         3.179542        2.205534        1.983459
 H         3.010741        1.905525        3.007949
3
 generated by VMD
 N         2.858337        1.706130        0.861391
 O         3.180929        2.218450        1.992428
 H         3.069341        2.005405        2.887889
3
 generated by VMD
 N         2.847780        1.703846        0.860600
 O         3.179121        2.228880        2.001440
 H         3.116438        2.092376        2.789392
3
 generated by VMD
 N         2.836292        1.701683        0.857556
 O         3.180121        2.237610        2.000720
 H         3.150825        2.147416        2.823491
3
 generated by VMD
 N         2.823408        1.697129        0.857190
 O         3.183229        2.246071        1.993650
 H         3.180799        2.177860        2.961925
3
 generated by VMD
 N         2.813947        1.692831        0.857758
 O         3.189459        2.256682        1.987419
 H         3.218687        2.184354        3.088699
3
 generated by VMD
 N         2.803160        1.688277        0.858850
 O         3.198200        2.268454        1.986122
 H         3.241759        2.181346        3.172936
3
 generated by VMD
 N         2.791969        1.686885        0.861864
 O         3.205783        2.281711        1.984379
 H         3.248929        2.171877        3.202582
3
 generated by VMD
 N         2.780860        1.686715        0.870359
 O         3.211679        2.293435        1.982315
 H         3.239561        2.154332        3.176987
3
 generated by VMD
 N         2.772318        1.686042        0.882138
 O         3.217299        2.306022        1.980947
 H         3.229234        2.123067        3.108138
3
 generated by VMD
 N         2.765402        1.684541        0.894967
 O         3.221386        2.319657        1.978584
 H         3.218205        2.089029        2.997929
3
 generated by VMD
 N         2.761897        1.682158        0.908074
 O         3.224126        2.332345        1.977110
 H         3.200376        2.054460        2.861485
3
 generated by VMD
 N         2.756876        1.679443        0.924338
 O         3.230927        2.343262        1.973137
 H         3.169187        2.016842        2.737306
3
 generated by VMD
 N         2.753089        1.679062        0.943066
 O         3.236609        2.360075        1.964260
 H         3.130010        1.922386        2.714352
3
 generated by VMD
 N         2.752087        1.676544        0.964733
 O         3.242188        2.374608        1.950907
 H         3.072278        1.789338        2.736810
3
 generated by VMD
 N         2.752003        1.676019        0.986370
 O         3.246402        2.385561        1.937696
 H         3.016318        1.673564        2.762297
3
 generated by VMD
 N         2.753200        1.674306        1.007886
 O         3.246739        2.396828        1.925429
 H         2.967439        1.584298        2.761624
3
 generated by VMD
 N         2.755001        1.670788        1.032043
 O         3.247035        2.405304        1.916678
 H         2.938144        1.532212        2.738034
3
 generated by VMD
 N         2.756875        1.669084        1.052794
 O         3.249799        2.412183        1.910657
 H         2.916831        1.529681        2.706363
3
 generated by VMD
 N         2.757507        1.664304        1.071741
 O         3.249361        2.420347        1.909926
 H         2.923582        1.564856        2.648313
3
 generated by VMD
 N         2.753982        1.657318        1.084658
 O         3.248338        2.425026        1.916104
 H         2.948293        1.630434        2.572451
3
 generated by VMD
 N         2.751371        1.650900        1.097043
 O         3.245748        2.429513        1.927506
 H         2.994796        1.719601        2.494930
3
 generated by VMD
 N         2.748667        1.641598        1.104092
 O         3.243684        2.437851        1.942142
 H         3.031693        1.801672        2.454157
3
 generated by VMD
 N         2.747881        1.633776        1.107779
 O         3.242138        2.454271        1.956624
 H         3.043092        1.826223        2.502496
3
 generated by VMD
 N         2.745914        1.625594        1.107400
 O         3.238695        2.475496        1.968757
 H         3.048613        1.798798        2.635267
3
 generated by VMD
 N         2.744098        1.618859        1.105123
 O         3.235623        2.494798        1.979112
 H         3.064063        1.782842        2.783609
3
 generated by VMD
 N         2.743751        1.612471        1.100041
 O         3.231942        2.514138        1.995413
 H         3.095088        1.784428        2.912394
3
 generated by VMD
 N         2.741894        1.610995        1.091108
 O         3.226236        2.528897        2.012463
 H         3.139067        1.814917        3.003354
3
 generated by VMD
 N         2.743874        1.610076        1.086696
 O         3.219096        2.538762        2.033039
 H         3.182443        1.876125        3.049130
3
 generated by VMD
 N         2.747534        1.607396        1.083850
 O         3.208938        2.543976        2.055627
 H         3.228397        1.981970        3.045853
3
 generated by VMD
 N         2.753290        1.606928        1.086048
 O         3.195795        2.547428        2.076395
 H         3.281038        2.105784        2.986646
3
 generated by VMD
 N         2.758718        1.609452        1.093144
 O         3.177633        2.549236        2.095897
 H         3.331195        2.229225        2.909323
3
 generated by VMD
 N         2.765300        1.615336        1.102503
 O         3.159395        2.551655        2.110731
 H         3.374026        2.333636        2.879365
3
 generated by VMD
 N         2.773367        1.624054        1.111978
 O         3.136790        2.557105        2.117204
 H         3.438729        2.401242        2.950612
3
 generated by VMD
 N         2.779586        1.631479        1.122087
 O         3.109076        2.561701        2.117552
 H         3.525777        2.452646        3.058703
3
 generated by VMD
 N         2.784685        1.639567        1.134953
 O         3.081553        2.567476        2.117303
 H         3.605293        2.499818        3.146417
3
 generated by VMD
 N         2.792481        1.646750        1.152870
 O         3.056894        2.571201        2.115173
 H         3.671347        2.534426        3.195817
3
 generated by VMD
 N         2.804632        1.653731        1.171703
 O         3.036148        2.572063        2.114114
 H         3.702794        2.567515        3.196839
3
 generated by VMD
 N         2.816515        1.661926        1.192220
 O         3.015280        2.574025        2.113784
 H         3.709735        2.586251        3.156223
3
 generated by VMD
 N         2.828850        1.669453        1.212922
 O         2.995217        2.579415        2.116451
 H         3.697569        2.594163        3.069086
3
 generated by VMD
 N         2.841725        1.678490        1.232127
 O         2.973734        2.588110        2.124330
 H         3.674047        2.591242        2.934665
3
 generated by VMD
 N         2.855772        1.684119        1.250419
 O         2.950642        2.595331        2.131383
 H         3.642462        2.578083        2.774096
3
 generated by VMD
 N         2.872212        1.691860        1.266726
 O         2.930576        2.604045        2.141355
 H         3.631265        2.565883        2.614270
3
 generated by VMD
 N         2.886267        1.697511        1.281373
 O         2.904925        2.609773        2.150348
 H         3.696472        2.546715        2.520076
3
 generated by VMD
 N         2.903587        1.703027        1.289924
 O         2.876493        2.619514        2.159570
 H         3.826902        2.529949        2.457054
3
 generated by VMD
 N         2.920171        1.707008        1.297646
 O         2.844419        2.632571        2.170959
 H         3.965114        2.513934        2.389892
3
 generated by VMD
 N         2.935199        1.711005        1.304023
 O         2.816249        2.643118        2.184128
 H         4.072221        2.511574        2.340958
3
 generated by VMD
 N         2.949852        1.717702        1.306673
 O         2.791502        2.650690        2.198233
 H         4.124821        2.536107        2.292518
3
 generated by VMD
 N         2.961113        1.723979        1.308398
 O         2.769373        2.655837        2.212585
 H         4.122005        2.579214        2.246626
3
 generated by VMD
 N         2.972532        1.729824        1.310588
 O         2.750587        2.660070        2.229363
 H         4.070293        2.630647        2.211902
3
 generated by VMD
 N         2.985423        1.734883        1.308657
 O         2.735688        2.666481        2.243210
 H         3.971786        2.691704        2.173045
3
 generated by VMD
 N         3.000912        1.740123        1.307366
 O         2.721334        2.674574        2.254394
 H         3.835798        2.770145        2.140541
3
 generated by VMD
 N         3.013647        1.745589        1.307794
 O         2.711008        2.682574        2.264839
 H         3.654927        2.870100        2.142667
3
 generated by VMD
 N         3.029006        1.754135        1.307984
 O         2.703639        2.687285        2.274733
 H         3.475897        2.985657        2.178167
3
 generated by VMD
 N         3.042336        1.764301        1.304798
 O         2.692758        2.689577        2.283701
 H         3.402694        3.162067        2.224620
3
 generated by VMD
 N         3.053097        1.775278        1.304869
 O         2.675523        2.688717        2.292717
 H         3.388423        3.389694        2.277234
3
 generated by VMD
 N         3.063547        1.786716        1.304988
 O         2.659898        2.688216        2.298627
 H         3.364675        3.601576        2.331746
3
 generated by VMD
 N         3.075865        1.799000        1.306907
 O         2.647244        2.684561        2.299555
 H         3.315274        3.766636        2.379388
3
 generated by VMD
 N         3.085496        1.810507        1.309530
 O         2.636440        2.682571        2.298258
 H         3.242484        3.895696        2.407802
3
 generated by VMD
 N         3.095000        1.820811        1.313661
 O         2.629055        2.680521        2.294920
 H         3.159762        3.978441        2.419082
3
 generated by VMD
 N         3.106032        1.836739        1.319539
 O         2.624305        2.677973        2.288592
 H         3.061891        4.020928        2.433356
3
 generated by VMD
 N         3.114713        1.853240        1.325203
 O         2.622093        2.674604        2.280764
 H         2.965261        4.033100        2.438839
3
 generated by VMD
 N         3.123756        1.871936        1.327918
 O         2.620276        2.672496        2.273019
 H         2.850593        4.004854        2.429012
3
 generated by VMD
 N         3.131719        1.893871        1.332983
 O         2.620149        2.670921        2.265306
 H         2.736033        3.920888        2.395988
3
 generated by VMD
 N         3.141615        1.918783        1.341047
 O         2.617978        2.669703        2.258487
 H         2.608784        3.780726        2.354968
3
 generated by VMD
 N         3.151014        1.946564        1.347717
 O         2.617491        2.669592        2.252240
 H         2.486705        3.609011        2.318771
3
 generated by VMD
 N         3.160772        1.977026        1.351571
 O         2.615971        2.669501        2.246690
 H         2.373546        3.445132        2.282932
3
 generated by VMD
 N         3.168103        2.008042        1.354064
 O         2.617295        2.660158        2.243783
 H         2.231075        3.414259        2.246423
3
 generated by VMD
 N         3.172784        2.036448        1.354113
 O         2.620096        2.643435        2.243278
 H         2.045473        3.466404        2.198993
3
 generated by VMD
 N         3.177039        2.064841        1.352330
 O         2.620836        2.626440        2.244667
 H         1.853720        3.510263        2.145040
3
 generated by VMD
 N         3.179351        2.093288        1.347015
 O         2.616905        2.613020        2.246572
 H         1.684856        3.526279        2.089534
3
 generated by VMD
 N         3.181674        2.119512        1.341778
 O         2.610150        2.598760        2.248626
 H         1.544037        3.528907        2.022380
3
 generated by VMD
 N         3.180283        2.147160        1.336096
 O         2.599318        2.586520        2.252270
 H         1.414656        3.533475        1.955864
3
 generated by VMD
 N         3.179235        2.175222        1.332271
 O         2.587812        2.572790        2.255408
 H         1.277938        3.541422        1.906607
3
 generated by VMD
 N         3.179783        2.206151        1.325987
 O         2.574791        2.556646        2.259435
 H         1.134810        3.539660        1.869111
3
 generated by VMD
 N         3.175334        2.238942        1.321653
 O         2.565272        2.539817        2.264016
 H         0.984909        3.532116        1.830096
3
 generated by VMD
 N         3.171556        2.269400        1.318218
 O         2.555295        2.523246        2.269241
 H         0.836042        3.516816        1.798216
3
 generated by VMD
 N         3.167029        2.304993        1.319392
 O         2.546505        2.505156        2.272734
 H         0.683635        3.503608        1.753703
3
 generated by VMD
 N         3.161094        2.340266        1.320267
 O         2.535459        2.484386        2.273551
 H         0.540971        3.504788        1.703357
3
 generated by VMD
 N         3.155858        2.373995        1.323315
 O         2.526873        2.466307        2.275910
 H         0.402385        3.527035        1.645821
3
 generated by VMD
 N         3.150172        2.409547        1.324873
 O         2.518256        2.448305        2.279903
 H         0.264158        3.543463        1.590658
3
 generated by VMD
 N         3.142134        2.444429        1.324407
 O         2.512750        2.430146        2.281912
 H         0.130111        3.565512        1.536266
3
 generated by VMD
 N         3.129025        2.480340        1.323387
 O         2.506487        2.411888        2.282001
 H        -0.013346        3.598387        1.494983
3
 generated by VMD
 N         3.113373        2.518802        1.328909
 O         2.502654        2.396426        2.279465
 H        -0.155543        3.627066        1.462687
3
 generated by VMD
 N         3.099755        2.552935        1.337030
 O         2.500293        2.379047        2.277598
 H        -0.288519        3.636134        1.445613
3
 generated by VMD
 N         3.083820        2.587134        1.343051
 O         2.499270        2.361004        2.278211
 H        -0.421115        3.659456        1.422460
3
 generated by VMD
 N         3.068449        2.623531        1.349322
 O         2.497455        2.340460        2.281047
 H        -0.551264        3.684927        1.403931
3
 generated by VMD
 N         3.052113        2.661237        1.354199
 O         2.498737        2.318933        2.285912
 H        -0.674120        3.721438        1.384168
3
 generated by VMD
 N         3.034531        2.697700        1.358806
 O         2.499669        2.295692        2.290363
 H        -0.811532        3.767316        1.375695
3
 generated by VMD
 N         3.019884        2.737500        1.367292
 O         2.498957        2.271693        2.291955
 H        -0.943074        3.815290        1.378306
3
 generated by VMD
 N         3.005924        2.778209        1.375884
 O         2.497722        2.249352        2.292001
 H        -1.065785        3.868944        1.388770
3
 generated by VMD
 N         2.994677        2.820702        1.384874
 O         2.496871        2.226643        2.289344
 H        -1.190816        3.931336        1.407300
3
 generated by VMD
 N         2.983721        2.860821        1.392959
 O         2.500067        2.205642        2.286579
 H        -1.301783        3.996512        1.426267
3
 generated by VMD
 N         2.973456        2.899115        1.402904
 O         2.503429        2.187499        2.280603
 H        -1.421611        4.067568        1.435603
3
 generated by VMD
 N         2.961502        2.934763        1.419263
 O         2.509538        2.172572        2.272579
 H        -1.545006        4.143095        1.454076
3
 generated by VMD
 N         2.947398        2.970136        1.439784
 O         2.517157        2.161842        2.263117
 H        -1.673949        4.223994        1.485878
3
 generated by VMD
 N         2.933439        2.999734        1.462742
 O         2.527062        2.154147        2.250141
 H        -1.802727        4.308043        1.519619
3
 generated by VMD
 N         2.917713        3.028458        1.487635
 O         2.537311        2.148037        2.234979
 H        -1.933290        4.404195        1.553857
3
 generated by VMD
 N         2.901217        3.051303        1.516476
 O         2.547101        2.147174        2.217552
 H        -2.062261        4.488537        1.592480
3
 generated by VMD
 N         2.882682        3.072136        1.545938
 O         2.554337        2.146745        2.201423
 H        -2.200241        4.574322        1.625432
3
 generated by VMD
 N         2.866396        3.094347        1.578161
 O         2.563680        2.146402        2.182627
 H        -2.324177        4.659253        1.656938
3
 generated by VMD
 N         2.851507        3.117724        1.612973
 O         2.569623        2.149675        2.164277
 H        -2.446940        4.743500        1.691834
3
 generated by VMD
 N         2.834553        3.142277        1.646901
 O         2.573533        2.153788        2.146633
 H        -2.571187        4.824968        1.718209
3
 generated by VMD
 N         2.817544        3.165123        1.683348
 O         2.577212        2.158965        2.129379
 H        -2.698055        4.905293        1.741183
3
 generated by VMD
 N         2.802349        3.186024        1.716901
 O         2.579951        2.163202        2.113828
 H        -2.814810        4.997643        1.748069
3
 generated by VMD
 N         2.790828        3.209400        1.750586
 O         2.582649        2.167450        2.098912
 H        -2.941143        5.081892        1.751931
3
 generated by VMD
 N         2.780727        3.231356        1.785229
 O         2.588025        2.170897        2.082999
 H        -3.061079        5.170958        1.756288
3
 generated by VMD
 N         2.770536        3.254050        1.818576
 O         2.592198        2.170737        2.067475
 H        -3.178072        5.263924        1.758393
3
 generated by VMD
 N         2.761035        3.281101        1.853047
 O         2.595217        2.170322        2.051968
 H        -3.290765        5.357311        1.761253
3
 generated by VMD
 N         2.749794        3.308542        1.885302
 O         2.594583        2.170735        2.034893
 H        -3.406353        5.449990        1.774784
3
 generated by VMD
 N         2.738978        3.334072        1.916392
 O         2.596208        2.172113        2.018734
 H        -3.510037        5.547750        1.776214
3
 generated by VMD
 N         2.728103        3.358129        1.950192
 O         2.595494        2.177923        2.000915
 H        -3.606595        5.643229        1.773146
3
 generated by VMD
 N         2.717218        3.377639        1.983580
 O         2.600469        2.185212        1.982246
 H        -3.699932        5.731987        1.776615
3
 generated by VMD
 N         2.710958        3.396218        2.017706
 O         2.608521        2.193430        1.966851
 H        -3.785993        5.819540        1.783834
3
 generated by VMD
 N         2.703680        3.410925        2.048564
 O         2.615221        2.204422        1.952422
 H        -3.867859        5.914917        1.794479
3
 generated by VMD
 N         2.694644        3.421924        2.081191
 O         2.624143        2.221256        1.938287
 H        -3.957710        5.999599        1.813083
3
 generated by VMD
 N         2.685146        3.429530        2.113461
 O         2.631173        2.239997        1.922790
 H        -4.039248        6.083105        1.834568
