3
 generated by VMD
 O        -0.045499        3.624170        4.767686
 O         1.198650        3.987355        4.316273
 N         2.692277       -1.097603       -2.759470
3
 generated by VMD
 O        -0.023180        3.658383        4.778544
 O         1.221683        4.017527        4.338979
 N         2.677029       -1.115893       -2.759066
3
 generated by VMD
 O         0.004996        3.693632        4.788676
 O         1.237501        4.046448        4.361062
 N         2.660033       -1.133051       -2.759485
3
 generated by VMD
 O         0.032458        3.729392        4.798524
 O         1.249933        4.076786        4.381074
 N         2.640604       -1.147677       -2.755634
3
 generated by VMD
 O         0.060642        3.765639        4.810734
 O         1.258670        4.106099        4.402623
 N         2.622188       -1.162356       -2.752037
3
 generated by VMD
 O         0.087810        3.802777        4.818979
 O         1.265304        4.133061        4.421230
 N         2.602786       -1.174728       -2.750356
3
 generated by VMD
 O         0.115323        3.838408        4.826874
 O         1.272249        4.159508        4.434963
 N         2.580742       -1.185714       -2.747665
3
 generated by VMD
 O         0.140773        3.872958        4.834881
 O         1.279779        4.183815        4.448774
 N         2.559749       -1.197320       -2.745048
3
 generated by VMD
 O         0.164966        3.908502        4.841731
 O         1.289309        4.207528        4.461332
 N         2.538338       -1.209944       -2.740264
3
 generated by VMD
 O         0.191253        3.942710        4.846894
 O         1.300617        4.233303        4.470016
 N         2.512502       -1.220136       -2.735977
3
 generated by VMD
 O         0.213130        3.975379        4.852481
 O         1.314602        4.260386        4.478151
 N         2.483727       -1.233933       -2.731014
3
 generated by VMD
 O         0.229798        4.006532        4.855615
 O         1.332660        4.285574        4.486984
 N         2.456629       -1.246105       -2.727022
3
 generated by VMD
 O         0.244159        4.034811        4.857970
 O         1.351756        4.308667        4.492692
 N         2.432012       -1.255180       -2.720625
3
 generated by VMD
 O         0.256991        4.065199        4.860101
 O         1.373024        4.330808        4.494699
 N         2.409388       -1.264800       -2.716536
3
 generated by VMD
 O         0.267232        4.092385        4.862297
 O         1.395109        4.350351        4.493564
 N         2.385631       -1.275384       -2.711578
3
 generated by VMD
 O         0.276470        4.119033        4.862849
 O         1.418625        4.370890        4.488611
 N         2.363441       -1.288321       -2.706143
3
 generated by VMD
 O         0.281105        4.143315        4.863192
 O         1.442585        4.390337        4.480922
 N         2.337049       -1.300291       -2.700190
3
 generated by VMD
 O         0.289904        4.165081        4.859642
 O         1.467628        4.408536        4.467982
 N         2.310029       -1.310506       -2.697465
3
 generated by VMD
 O         0.298778        4.182265        4.855434
 O         1.492369        4.425680        4.450988
 N         2.283203       -1.321544       -2.692463
3
 generated by VMD
 O         0.308572        4.200492        4.848333
 O         1.517068        4.437887        4.433939
 N         2.255852       -1.331127       -2.688482
3
 generated by VMD
 O         0.323589        4.217726        4.841500
 O         1.538167        4.446822        4.419128
 N         2.230590       -1.337939       -2.686203
3
 generated by VMD
 O         0.336627        4.233283        4.834399
 O         1.560456        4.455593        4.404247
 N         2.205781       -1.343731       -2.685499
3
 generated by VMD
 O         0.351927        4.250427        4.825764
 O         1.583054        4.462104        4.390486
 N         2.183537       -1.349735       -2.683860
3
 generated by VMD
 O         0.369699        4.266175        4.816440
 O         1.605411        4.465728        4.377973
 N         2.156207       -1.352606       -2.681662
3
 generated by VMD
 O         0.389139        4.283278        4.803711
 O         1.625090        4.468323        4.365571
 N         2.126819       -1.349989       -2.673837
3
 generated by VMD
 O         0.412099        4.300243        4.785087
 O         1.645005        4.466246        4.352072
 N         2.097789       -1.346961       -2.665586
3
 generated by VMD
 O         0.435336        4.316526        4.762044
 O         1.659482        4.465972        4.341742
 N         2.071364       -1.344900       -2.652922
3
 generated by VMD
 O         0.461581        4.332574        4.738099
 O         1.670481        4.465481        4.333596
 N         2.042871       -1.343724       -2.640346
3
 generated by VMD
 O         0.489220        4.350404        4.714560
 O         1.677779        4.462208        4.322444
 N         2.012935       -1.343876       -2.627663
3
 generated by VMD
 O         0.516596        4.364662        4.690420
 O         1.686525        4.460637        4.308724
 N         1.983946       -1.341806       -2.615469
3
 generated by VMD
 O         0.542919        4.375874        4.666881
 O         1.691703        4.458140        4.291980
 N         1.954916       -1.339317       -2.604549
3
 generated by VMD
 O         0.567566        4.382946        4.640842
 O         1.696339        4.453506        4.275472
 N         1.925483       -1.338401       -2.593644
3
 generated by VMD
 O         0.591927        4.390234        4.613358
 O         1.701849        4.447162        4.256190
 N         1.894718       -1.338708       -2.581953
3
 generated by VMD
 O         0.611988        4.399347        4.588413
 O         1.713844        4.438920        4.233590
 N         1.866030       -1.338537       -2.569339
3
 generated by VMD
 O         0.625301        4.407111        4.563495
 O         1.731225        4.430509        4.208082
 N         1.837927       -1.337970       -2.552414
3
 generated by VMD
 O         0.633262        4.414172        4.537944
 O         1.749472        4.421832        4.184335
 N         1.809880       -1.340192       -2.537091
3
 generated by VMD
 O         0.639153        4.417481        4.513651
 O         1.769033        4.412269        4.156077
 N         1.781744       -1.342480       -2.519062
3
 generated by VMD
 O         0.638977        4.419007        4.490955
 O         1.790967        4.402880        4.130800
 N         1.753725       -1.348693       -2.501339
3
 generated by VMD
 O         0.640676        4.421175        4.467229
 O         1.817097        4.395295        4.105093
 N         1.724071       -1.353178       -2.483358
3
 generated by VMD
 O         0.641664        4.422747        4.443887
 O         1.844866        4.386687        4.079225
 N         1.693663       -1.357242       -2.464136
3
 generated by VMD
 O         0.643525        4.418401        4.424543
 O         1.872346        4.379836        4.052576
 N         1.665573       -1.361434       -2.450317
3
 generated by VMD
 O         0.648588        4.411444        4.404457
 O         1.897227        4.372289        4.026107
 N         1.637927       -1.365413       -2.437902
3
 generated by VMD
 O         0.657228        4.403262        4.382608
 O         1.921223        4.360820        3.999010
 N         1.608259       -1.369213       -2.425092
3
 generated by VMD
 O         0.668615        4.391413        4.358232
 O         1.942253        4.352804        3.972247
 N         1.579883       -1.373862       -2.414017
3
 generated by VMD
 O         0.684326        4.380103        4.335890
 O         1.959584        4.344388        3.947447
 N         1.553869       -1.381463       -2.401572
3
 generated by VMD
 O         0.701815        4.367272        4.311030
 O         1.973199        4.332580        3.920692
 N         1.528800       -1.393352       -2.387331
3
 generated by VMD
 O         0.721278        4.350709        4.282917
 O         1.982596        4.323154        3.892897
 N         1.503698       -1.405940       -2.371457
3
 generated by VMD
 O         0.742832        4.334549        4.253736
 O         1.990438        4.315140        3.863132
 N         1.481699       -1.420076       -2.355079
3
 generated by VMD
 O         0.768713        4.318706        4.221845
 O         1.996704        4.305890        3.833518
 N         1.459358       -1.433769       -2.336796
3
 generated by VMD
 O         0.798317        4.301081        4.187241
 O         2.005592        4.298632        3.803645
 N         1.438619       -1.449668       -2.320691
3
 generated by VMD
 O         0.827453        4.285063        4.150264
 O         2.011787        4.290838        3.775117
 N         1.418066       -1.464155       -2.305704
3
 generated by VMD
 O         0.857030        4.266325        4.112762
 O         2.014198        4.285201        3.747340
 N         1.398175       -1.479939       -2.289079
3
 generated by VMD
 O         0.884644        4.246605        4.072993
 O         2.017273        4.280510        3.719440
 N         1.378383       -1.495963       -2.277000
3
 generated by VMD
 O         0.908896        4.223201        4.031387
 O         2.022103        4.275010        3.691950
 N         1.356906       -1.514513       -2.264635
3
 generated by VMD
 O         0.930741        4.200025        3.994337
 O         2.032809        4.267598        3.660023
 N         1.336195       -1.532215       -2.250014
3
 generated by VMD
 O         0.946362        4.174734        3.959505
 O         2.048121        4.258812        3.625328
 N         1.317511       -1.550822       -2.234378
3
 generated by VMD
 O         0.958005        4.151671        3.926274
 O         2.069509        4.249176        3.588339
 N         1.296802       -1.569814       -2.219237
3
 generated by VMD
 O         0.968172        4.127242        3.893407
 O         2.095295        4.239945        3.549106
 N         1.276571       -1.589222       -2.202567
3
 generated by VMD
 O         0.973655        4.103523        3.860681
 O         2.120560        4.231299        3.508477
 N         1.258898       -1.610507       -2.184056
3
 generated by VMD
 O         0.978833        4.079312        3.825477
 O         2.148306        4.224286        3.466736
 N         1.241553       -1.631311       -2.168169
3
 generated by VMD
 O         0.983939        4.057860        3.789613
 O         2.178834        4.214110        3.424593
 N         1.226498       -1.652473       -2.153600
3
 generated by VMD
 O         0.990312        4.036794        3.752461
 O         2.207830        4.199680        3.380797
 N         1.209835       -1.675727       -2.138847
3
 generated by VMD
 O         0.997368        4.015065        3.713413
 O         2.232754        4.184148        3.334199
 N         1.195887       -1.692676       -2.120970
3
 generated by VMD
 O         1.006752        3.993666        3.670750
 O         2.256255        4.167961        3.286794
 N         1.184418       -1.710371       -2.104136
3
 generated by VMD
 O         1.016584        3.970963        3.629218
 O         2.276958        4.152470        3.239388
 N         1.170539       -1.727567       -2.089749
3
 generated by VMD
 O         1.026281        3.947307        3.585686
 O         2.294053        4.139326        3.192711
 N         1.153246       -1.747131       -2.078514
3
 generated by VMD
 O         1.036969        3.923365        3.540306
 O         2.310759        4.127918        3.149453
 N         1.135260       -1.765034       -2.069943
3
 generated by VMD
 O         1.050974        3.899983        3.494689
 O         2.322093        4.114169        3.110546
 N         1.120967       -1.782425       -2.059522
3
 generated by VMD
 O         1.067989        3.876152        3.448392
 O         2.333356        4.099314        3.074017
 N         1.105451       -1.798259       -2.046808
3
 generated by VMD
 O         1.087636        3.851568        3.401988
 O         2.341019        4.081631        3.036161
 N         1.090493       -1.812872       -2.033877
3
 generated by VMD
 O         1.112498        3.828557        3.354761
 O         2.347354        4.062067        3.000323
 N         1.075733       -1.826191       -2.016218
3
 generated by VMD
 O         1.135157        3.806611        3.306300
 O         2.348534        4.039443        2.966005
 N         1.062013       -1.839816       -2.003382
3
 generated by VMD
 O         1.159120        3.787887        3.256625
 O         2.346963        4.016801        2.930429
 N         1.050827       -1.852644       -1.989992
3
 generated by VMD
 O         1.184194        3.769746        3.206281
 O         2.345512        3.994859        2.894832
 N         1.039738       -1.860263       -1.978623
3
 generated by VMD
 O         1.206739        3.750447        3.156260
 O         2.346785        3.975357        2.857598
 N         1.027691       -1.867661       -1.967773
3
 generated by VMD
 O         1.226424        3.727866        3.108916
 O         2.348069        3.954188        2.818500
 N         1.017803       -1.876720       -1.956943
3
 generated by VMD
 O         1.245319        3.703923        3.062840
 O         2.350458        3.932580        2.780703
 N         1.005000       -1.889857       -1.945029
3
 generated by VMD
 O         1.260521        3.679715        3.019591
 O         2.354634        3.909740        2.739614
 N         0.991473       -1.903862       -1.935092
3
 generated by VMD
 O         1.271016        3.652436        2.976377
 O         2.362057        3.884585        2.696086
 N         0.975869       -1.922122       -1.926781
3
 generated by VMD
 O         1.274773        3.618529        2.933454
 O         2.373886        3.863730        2.650701
 N         0.962312       -1.940041       -1.922409
3
 generated by VMD
 O         1.274515        3.584142        2.893289
 O         2.389234        3.841847        2.602793
 N         0.947475       -1.959929       -1.916426
3
 generated by VMD
 O         1.269004        3.545241        2.850758
 O         2.411520        3.817875        2.552965
 N         0.932015       -1.979988       -1.908332
3
 generated by VMD
 O         1.260710        3.502754        2.811747
 O         2.434746        3.792353        2.501517
 N         0.922600       -2.000283       -1.900484
3
 generated by VMD
 O         1.252015        3.458286        2.772695
 O         2.461301        3.770248        2.453881
 N         0.911913       -2.020941       -1.890158
3
 generated by VMD
 O         1.243654        3.409103        2.733569
 O         2.488455        3.750202        2.407567
 N         0.899737       -2.038327       -1.881340
3
 generated by VMD
 O         1.237471        3.360989        2.695923
 O         2.508958        3.726205        2.362803
 N         0.884627       -2.055144       -1.870431
3
 generated by VMD
 O         1.233349        3.312487        2.656775
 O         2.528028        3.701433        2.315278
 N         0.873506       -2.074487       -1.861040
3
 generated by VMD
 O         1.229264        3.259959        2.621186
 O         2.543772        3.672932        2.267043
 N         0.862948       -2.089293       -1.855230
3
 generated by VMD
 O         1.228679        3.210961        2.584567
 O         2.558735        3.645717        2.216143
 N         0.855086       -2.101117       -1.854733
3
 generated by VMD
 O         1.230956        3.164489        2.545829
 O         2.570824        3.618958        2.164451
 N         0.846183       -2.113211       -1.851197
3
 generated by VMD
 O         1.236485        3.117767        2.503553
 O         2.577708        3.592566        2.116310
 N         0.836556       -2.126557       -1.850648
3
 generated by VMD
 O         1.247411        3.076172        2.460746
 O         2.578339        3.565775        2.066661
 N         0.826048       -2.143160       -1.848495
3
 generated by VMD
 O         1.262711        3.037455        2.411948
 O         2.577286        3.537988        2.022283
 N         0.814447       -2.160887       -1.843904
3
 generated by VMD
 O         1.280241        2.998919        2.363646
 O         2.570256        3.510983        1.975622
 N         0.800955       -2.177836       -1.834848
3
 generated by VMD
 O         1.300725        2.958846        2.314711
 O         2.562172        3.482696        1.934986
 N         0.790622       -2.195411       -1.825854
3
 generated by VMD
 O         1.320567        2.922961        2.262504
 O         2.553353        3.453479        1.895868
 N         0.780134       -2.213257       -1.817941
3
 generated by VMD
 O         1.344548        2.888131        2.210178
 O         2.539757        3.425041        1.856247
 N         0.770576       -2.232436       -1.810340
3
 generated by VMD
 O         1.370204        2.853892        2.156230
 O         2.520156        3.394875        1.816949
 N         0.763720       -2.251745       -1.803408
3
 generated by VMD
 O         1.394992        2.820705        2.100765
 O         2.495010        3.364969        1.780939
 N         0.758061       -2.269411       -1.796657
3
 generated by VMD
 O         1.418351        2.786507        2.044661
 O         2.467544        3.335544        1.742636
 N         0.752018       -2.287358       -1.793008
3
 generated by VMD
 O         1.443988        2.748868        1.987574
 O         2.437872        3.306007        1.703374
 N         0.744106       -2.305019       -1.788728
3
 generated by VMD
 O         1.464472        2.708902        1.930149
 O         2.412003        3.275392        1.661518
 N         0.735235       -2.317458       -1.782376
3
 generated by VMD
 O         1.478962        2.667037        1.872900
 O         2.387369        3.248269        1.614245
 N         0.727657       -2.330223       -1.775285
3
 generated by VMD
 O         1.484205        2.617550        1.818822
 O         2.373473        3.223462        1.564738
 N         0.719634       -2.343557       -1.768247
3
 generated by VMD
 O         1.479841        2.562092        1.766261
 O         2.364882        3.204180        1.512489
 N         0.709761       -2.354706       -1.758886
3
 generated by VMD
 O         1.468948        2.503763        1.716228
 O         2.365982        3.187249        1.459899
 N         0.703480       -2.364321       -1.746192
3
 generated by VMD
 O         1.454895        2.443988        1.666765
 O         2.369188        3.172583        1.406694
 N         0.695102       -2.373320       -1.733560
3
 generated by VMD
 O         1.437996        2.379139        1.616497
 O         2.370993        3.159165        1.352517
 N         0.687418       -2.382706       -1.719112
3
 generated by VMD
 O         1.416650        2.307895        1.567240
 O         2.372846        3.144394        1.298351
 N         0.682615       -2.392491       -1.703945
3
 generated by VMD
 O         1.396741        2.238567        1.515651
 O         2.372827        3.124586        1.243353
 N         0.678832       -2.402355       -1.692380
3
 generated by VMD
 O         1.379479        2.170618        1.466592
 O         2.367416        3.099979        1.192122
 N         0.675375       -2.412639       -1.682047
3
 generated by VMD
 O         1.366264        2.106316        1.416489
 O         2.365732        3.075905        1.141026
 N         0.671723       -2.422474       -1.672934
3
 generated by VMD
 O         1.355765        2.044319        1.366520
 O         2.358506        3.049580        1.093662
 N         0.668314       -2.432045       -1.664241
3
 generated by VMD
 O         1.348997        1.986971        1.317700
 O         2.348113        3.020194        1.046574
 N         0.668601       -2.441229       -1.656511
3
 generated by VMD
 O         1.345834        1.935760        1.268781
 O         2.336838        2.987012        1.002088
 N         0.672701       -2.447932       -1.644928
3
 generated by VMD
 O         1.340258        1.885866        1.216942
 O         2.321560        2.949082        0.957058
 N         0.673452       -2.456471       -1.632534
3
 generated by VMD
 O         1.336357        1.838646        1.161510
 O         2.304549        2.906943        0.909314
 N         0.675032       -2.464111       -1.619284
3
 generated by VMD
 O         1.333040        1.794127        1.106405
 O         2.284546        2.862445        0.862350
 N         0.675784       -2.469543       -1.605943
3
 generated by VMD
 O         1.330985        1.754288        1.051923
 O         2.261215        2.815333        0.813579
 N         0.672800       -2.474620       -1.592299
3
 generated by VMD
 O         1.331154        1.720845        0.994905
 O         2.235007        2.762664        0.766893
 N         0.670803       -2.478075       -1.580954
3
 generated by VMD
 O         1.331574        1.689163        0.936919
 O         2.205767        2.707206        0.720829
 N         0.668542       -2.481401       -1.570504
3
 generated by VMD
 O         1.334857        1.658874        0.880616
 O         2.175004        2.650798        0.674580
 N         0.663087       -2.484220       -1.561051
3
 generated by VMD
 O         1.339021        1.629595        0.822405
 O         2.145044        2.593112        0.627254
 N         0.656944       -2.487610       -1.547679
3
 generated by VMD
 O         1.341703        1.601011        0.766607
 O         2.114897        2.536326        0.580444
 N         0.649998       -2.490613       -1.533350
3
 generated by VMD
 O         1.345189        1.573270        0.710829
 O         2.085486        2.483832        0.536864
 N         0.644796       -2.493262       -1.518743
3
 generated by VMD
 O         1.345795        1.545794        0.655953
 O         2.060398        2.431335        0.496620
 N         0.640251       -2.495344       -1.506329
3
 generated by VMD
 O         1.344182        1.514383        0.603885
 O         2.038450        2.381850        0.456295
 N         0.634862       -2.497690       -1.494978
3
 generated by VMD
 O         1.335542        1.476759        0.555135
 O         2.019339        2.338409        0.415183
 N         0.628400       -2.499551       -1.482709
3
 generated by VMD
 O         1.319692        1.431208        0.510646
 O         2.003733        2.302826        0.373846
 N         0.624696       -2.499950       -1.469733
3
 generated by VMD
 O         1.298809        1.379424        0.465470
 O         1.993163        2.270556        0.331534
 N         0.621851       -2.506190       -1.456893
3
 generated by VMD
 O         1.275915        1.323880        0.422831
 O         1.985159        2.242926        0.283475
 N         0.620335       -2.511569       -1.443021
3
 generated by VMD
 O         1.252900        1.265295        0.377884
 O         1.979293        2.218190        0.233643
 N         0.621636       -2.518374       -1.430614
3
 generated by VMD
 O         1.225727        1.204626        0.334107
 O         1.975757        2.195470        0.186749
 N         0.624618       -2.524486       -1.419400
3
 generated by VMD
 O         1.197617        1.142359        0.288054
 O         1.973066        2.173238        0.142383
 N         0.631465       -2.528633       -1.412336
3
 generated by VMD
 O         1.170249        1.079876        0.242569
 O         1.967662        2.152158        0.096991
 N         0.639803       -2.533020       -1.405493
3
 generated by VMD
 O         1.146973        1.019732        0.194661
 O         1.961350        2.130000        0.051334
 N         0.649143       -2.534472       -1.398004
3
 generated by VMD
 O         1.124105        0.962149        0.147024
 O         1.954187        2.104630        0.004658
 N         0.660793       -2.535233       -1.392904
3
 generated by VMD
 O         1.103592        0.906354        0.101947
 O         1.944467        2.075204       -0.041816
 N         0.673598       -2.535619       -1.387501
3
 generated by VMD
 O         1.084798        0.854627        0.057715
 O         1.933566        2.045913       -0.086723
 N         0.680984       -2.533419       -1.380247
3
 generated by VMD
 O         1.069745        0.805656        0.013360
 O         1.920280        2.012082       -0.130900
 N         0.689285       -2.531037       -1.374679
3
 generated by VMD
 O         1.057130        0.764628       -0.033742
 O         1.905757        1.977336       -0.176963
 N         0.697550       -2.529918       -1.368572
3
 generated by VMD
 O         1.044447        0.725641       -0.081179
 O         1.887795        1.937552       -0.221118
 N         0.704923       -2.529917       -1.360034
3
 generated by VMD
 O         1.034996        0.691631       -0.128112
 O         1.868193        1.894353       -0.264692
 N         0.712522       -2.526647       -1.348238
3
 generated by VMD
 O         1.029924        0.661315       -0.176616
 O         1.846027        1.843978       -0.309340
 N         0.722350       -2.523281       -1.337308
3
 generated by VMD
 O         1.026833        0.632923       -0.223422
 O         1.824013        1.792041       -0.352690
 N         0.733783       -2.522222       -1.331770
3
 generated by VMD
 O         1.026082        0.610298       -0.269434
 O         1.801405        1.737176       -0.395472
 N         0.746359       -2.521182       -1.326743
3
 generated by VMD
 O         1.027160        0.590173       -0.317354
 O         1.778803        1.679949       -0.436016
 N         0.755888       -2.520577       -1.325491
3
 generated by VMD
 O         1.032252        0.572200       -0.363660
 O         1.756782        1.621730       -0.473353
 N         0.766245       -2.519010       -1.321162
3
 generated by VMD
 O         1.041771        0.558688       -0.406671
 O         1.733670        1.562069       -0.510081
 N         0.777519       -2.514775       -1.316199
3
 generated by VMD
 O         1.052517        0.545008       -0.453965
 O         1.711088        1.503962       -0.547732
 N         0.793349       -2.507962       -1.309411
3
 generated by VMD
 O         1.059290        0.527115       -0.500623
 O         1.692111        1.448906       -0.586505
 N         0.808929       -2.504391       -1.302290
3
 generated by VMD
 O         1.065731        0.504744       -0.549950
 O         1.678524        1.400618       -0.626643
 N         0.821834       -2.502090       -1.296439
3
 generated by VMD
 O         1.065554        0.472991       -0.598077
 O         1.673190        1.362787       -0.668173
 N         0.830330       -2.502669       -1.291051
3
 generated by VMD
 O         1.059042        0.433593       -0.646079
 O         1.674364        1.335571       -0.710443
 N         0.836570       -2.505525       -1.282334
3
 generated by VMD
 O         1.047450        0.384869       -0.692644
 O         1.677842        1.320698       -0.753726
 N         0.844213       -2.507099       -1.275825
3
 generated by VMD
 O         1.032041        0.332609       -0.741672
 O         1.686420        1.313182       -0.794226
 N         0.850403       -2.506678       -1.267588
3
 generated by VMD
 O         1.012838        0.280854       -0.789533
 O         1.695392        1.307494       -0.832960
 N         0.854512       -2.503737       -1.256468
3
 generated by VMD
 O         0.992550        0.229381       -0.839900
 O         1.704333        1.304219       -0.868574
 N         0.860134       -2.499846       -1.246011
3
 generated by VMD
 O         0.974644        0.181715       -0.890424
 O         1.713140        1.301838       -0.909019
 N         0.867779       -2.494367       -1.239841
3
 generated by VMD
 O         0.957696        0.137878       -0.940319
 O         1.720487        1.298461       -0.950403
 N         0.875484       -2.490072       -1.234546
3
 generated by VMD
 O         0.942365        0.099282       -0.988826
 O         1.731174        1.292791       -0.989601
 N         0.884283       -2.487824       -1.225478
3
 generated by VMD
 O         0.929968        0.062477       -1.041117
 O         1.740083        1.284034       -1.028730
 N         0.891800       -2.486399       -1.214672
3
 generated by VMD
 O         0.921288        0.031100       -1.091027
 O         1.746563        1.269086       -1.072824
 N         0.897798       -2.483670       -1.203185
3
 generated by VMD
 O         0.914274        0.002590       -1.139463
 O         1.752558        1.251196       -1.113550
 N         0.904756       -2.479078       -1.189205
3
 generated by VMD
 O         0.909999       -0.022061       -1.185712
 O         1.758271        1.229852       -1.153652
 N         0.913542       -2.475419       -1.173846
3
 generated by VMD
 O         0.908864       -0.042343       -1.230341
 O         1.760718        1.208182       -1.195479
 N         0.920638       -2.467803       -1.159893
3
 generated by VMD
 O         0.911285       -0.059122       -1.275117
 O         1.759069        1.182794       -1.238117
 N         0.926293       -2.461501       -1.145444
3
 generated by VMD
 O         0.917942       -0.070678       -1.319997
 O         1.755843        1.153237       -1.280299
 N         0.929585       -2.455835       -1.131070
3
 generated by VMD
 O         0.928125       -0.078656       -1.367312
 O         1.751873        1.122080       -1.321812
 N         0.933517       -2.450554       -1.115853
3
 generated by VMD
 O         0.940644       -0.082411       -1.415550
 O         1.745100        1.086060       -1.363781
 N         0.935998       -2.451851       -1.105270
3
 generated by VMD
 O         0.953731       -0.084616       -1.461795
 O         1.737293        1.044108       -1.403308
 N         0.935283       -2.454632       -1.096500
3
 generated by VMD
 O         0.968587       -0.084911       -1.512071
 O         1.727833        1.002126       -1.443207
 N         0.933791       -2.458558       -1.086323
3
 generated by VMD
 O         0.985046       -0.083181       -1.563478
 O         1.721358        0.958876       -1.481721
 N         0.932619       -2.463670       -1.076241
3
 generated by VMD
 O         1.003133       -0.082042       -1.614441
 O         1.712952        0.917265       -1.518959
 N         0.929356       -2.467098       -1.062303
3
 generated by VMD
 O         1.022123       -0.079801       -1.667404
 O         1.704085        0.878886       -1.557399
 N         0.926393       -2.471159       -1.049627
3
 generated by VMD
 O         1.040249       -0.078409       -1.721708
 O         1.699347        0.843020       -1.594438
 N         0.925314       -2.477931       -1.037098
3
 generated by VMD
 O         1.051570       -0.081775       -1.777180
 O         1.696413        0.811739       -1.629202
 N         0.924078       -2.484848       -1.023082
3
 generated by VMD
 O         1.062044       -0.091039       -1.833052
 O         1.699647        0.786956       -1.662262
 N         0.924860       -2.487789       -1.010281
3
 generated by VMD
 O         1.063791       -0.108509       -1.890793
 O         1.708329        0.773947       -1.692552
 N         0.927852       -2.490630       -0.998438
3
 generated by VMD
 O         1.059450       -0.129749       -1.948009
 O         1.721213        0.768927       -1.718349
 N         0.929733       -2.495707       -0.984571
3
 generated by VMD
 O         1.053935       -0.154617       -2.005913
 O         1.737594        0.769920       -1.740962
 N         0.930626       -2.498306       -0.968043
3
 generated by VMD
 O         1.048032       -0.181463       -2.061504
 O         1.754507        0.771268       -1.757931
 N         0.930265       -2.498312       -0.956234
3
 generated by VMD
 O         1.044023       -0.212827       -2.117171
 O         1.770550        0.772969       -1.778305
 N         0.929750       -2.494966       -0.944999
3
 generated by VMD
 O         1.039652       -0.243593       -2.173292
 O         1.790598        0.773794       -1.799277
 N         0.926895       -2.489710       -0.934414
3
 generated by VMD
 O         1.040243       -0.273857       -2.229787
 O         1.809560        0.773723       -1.821604
 N         0.926906       -2.486709       -0.924844
3
 generated by VMD
 O         1.039090       -0.300159       -2.283687
 O         1.825041        0.771189       -1.840492
 N         0.927244       -2.484195       -0.920586
3
 generated by VMD
 O         1.039717       -0.324259       -2.336335
 O         1.837553        0.765390       -1.860340
 N         0.933246       -2.484253       -0.916701
3
 generated by VMD
 O         1.039563       -0.348717       -2.387218
 O         1.846114        0.757719       -1.881036
 N         0.936055       -2.483549       -0.913685
3
 generated by VMD
 O         1.040804       -0.369570       -2.434247
 O         1.852413        0.745330       -1.906458
 N         0.939049       -2.480678       -0.914399
3
 generated by VMD
 O         1.045257       -0.381933       -2.481271
 O         1.857150        0.728331       -1.930676
 N         0.944672       -2.477395       -0.916805
3
 generated by VMD
 O         1.053326       -0.391092       -2.523085
 O         1.857594        0.708722       -1.957973
 N         0.950567       -2.476606       -0.918289
3
 generated by VMD
 O         1.061826       -0.397516       -2.562222
 O         1.855772        0.685886       -1.983133
 N         0.955123       -2.478420       -0.921094
3
 generated by VMD
 O         1.071854       -0.397798       -2.600692
 O         1.852245        0.660664       -2.010163
 N         0.958986       -2.480604       -0.924218
3
 generated by VMD
 O         1.087171       -0.396758       -2.641630
 O         1.847754        0.631597       -2.037462
 N         0.962446       -2.477311       -0.928468
3
 generated by VMD
 O         1.100948       -0.392859       -2.676625
 O         1.844291        0.600498       -2.070172
 N         0.964188       -2.472965       -0.932377
3
 generated by VMD
 O         1.113673       -0.387884       -2.709940
 O         1.840589        0.571291       -2.102376
 N         0.966285       -2.467042       -0.937367
3
 generated by VMD
 O         1.126511       -0.384211       -2.740478
 O         1.838818        0.537903       -2.138341
 N         0.967826       -2.458639       -0.940330
3
 generated by VMD
 O         1.137743       -0.377576       -2.770088
 O         1.839514        0.504139       -2.175738
 N         0.970376       -2.450079       -0.943499
3
 generated by VMD
 O         1.149067       -0.370808       -2.799911
 O         1.835794        0.468931       -2.211558
 N         0.974229       -2.438866       -0.947678
3
 generated by VMD
 O         1.157187       -0.363356       -2.827691
 O         1.837204        0.437517       -2.247310
 N         0.978375       -2.431509       -0.950499
3
 generated by VMD
 O         1.161734       -0.360263       -2.856805
 O         1.838873        0.405560       -2.282506
 N         0.982698       -2.423410       -0.953437
3
 generated by VMD
 O         1.163819       -0.359843       -2.886747
 O         1.841632        0.372193       -2.315901
 N         0.988851       -2.412317       -0.955807
3
 generated by VMD
 O         1.163463       -0.365846       -2.917244
 O         1.848573        0.341022       -2.349926
 N         0.998808       -2.399954       -0.960430
3
 generated by VMD
 O         1.158546       -0.376134       -2.951893
 O         1.859563        0.317326       -2.379462
 N         1.009543       -2.388025       -0.966528
3
 generated by VMD
 O         1.150914       -0.392359       -2.988870
 O         1.876242        0.294017       -2.408229
 N         1.025325       -2.375100       -0.971910
3
 generated by VMD
 O         1.139362       -0.414238       -3.026779
 O         1.898054        0.273676       -2.434307
 N         1.039965       -2.363604       -0.975805
3
 generated by VMD
 O         1.123801       -0.438684       -3.062756
 O         1.921533        0.260150       -2.460767
 N         1.060472       -2.351084       -0.979940
3
 generated by VMD
 O         1.104419       -0.464861       -3.094860
 O         1.946647        0.248312       -2.488867
 N         1.080372       -2.339740       -0.987002
3
 generated by VMD
 O         1.088458       -0.490703       -3.126530
 O         1.971489        0.238581       -2.514880
 N         1.098801       -2.326435       -0.992278
3
 generated by VMD
 O         1.072922       -0.518140       -3.161042
 O         1.995782        0.230319       -2.539837
 N         1.117576       -2.313153       -0.994620
3
 generated by VMD
 O         1.057935       -0.542561       -3.195735
 O         2.021329        0.223571       -2.565873
 N         1.136774       -2.298837       -0.996317
3
 generated by VMD
 O         1.048369       -0.563086       -3.229206
 O         2.044440        0.215614       -2.593863
 N         1.155422       -2.282550       -0.992959
3
 generated by VMD
 O         1.039963       -0.581656       -3.262541
 O         2.065552        0.203625       -2.620864
 N         1.175734       -2.268407       -0.991481
3
 generated by VMD
 O         1.033915       -0.602426       -3.294788
 O         2.084989        0.192484       -2.647299
 N         1.195255       -2.257026       -0.990541
3
 generated by VMD
 O         1.033465       -0.619233       -3.322762
 O         2.099394        0.177969       -2.673425
 N         1.212194       -2.248382       -0.989182
3
 generated by VMD
 O         1.032675       -0.629932       -3.348308
 O         2.109161        0.158518       -2.700603
 N         1.230308       -2.240174       -0.985678
3
 generated by VMD
 O         1.034510       -0.637011       -3.371577
 O         2.115423        0.138642       -2.726491
 N         1.249036       -2.234659       -0.985292
3
 generated by VMD
 O         1.041917       -0.640323       -3.395354
 O         2.119269        0.119427       -2.752401
 N         1.267909       -2.225842       -0.984386
3
 generated by VMD
 O         1.051856       -0.642212       -3.415054
 O         2.118852        0.097575       -2.780111
 N         1.287361       -2.221558       -0.980062
3
 generated by VMD
 O         1.066783       -0.641927       -3.432395
 O         2.113485        0.073409       -2.810266
 N         1.307982       -2.219875       -0.974450
3
 generated by VMD
 O         1.085047       -0.641953       -3.447861
 O         2.105307        0.047265       -2.841816
 N         1.328294       -2.221667       -0.970117
3
 generated by VMD
 O         1.105377       -0.639452       -3.457857
 O         2.096061        0.021851       -2.873525
 N         1.349484       -2.223676       -0.964027
3
 generated by VMD
 O         1.127616       -0.633232       -3.467169
 O         2.085760       -0.001574       -2.905051
 N         1.369433       -2.224951       -0.956909
3
 generated by VMD
 O         1.150897       -0.624767       -3.478884
 O         2.075189       -0.026249       -2.937143
 N         1.386376       -2.225686       -0.948058
3
 generated by VMD
 O         1.176246       -0.615544       -3.490500
 O         2.061839       -0.052353       -2.968872
 N         1.405574       -2.228557       -0.938431
3
 generated by VMD
 O         1.203321       -0.608200       -3.502912
 O         2.050427       -0.077158       -3.002258
 N         1.422241       -2.235759       -0.932095
3
 generated by VMD
 O         1.222851       -0.604050       -3.520570
 O         2.045986       -0.097585       -3.030134
 N         1.438882       -2.243292       -0.925978
3
 generated by VMD
 O         1.233006       -0.603790       -3.545213
 O         2.051891       -0.115578       -3.053107
 N         1.454897       -2.251539       -0.921313
3
 generated by VMD
 O         1.235452       -0.605119       -3.572068
 O         2.066100       -0.126717       -3.070502
 N         1.471393       -2.262844       -0.912282
3
 generated by VMD
 O         1.228814       -0.608201       -3.604811
 O         2.092379       -0.134346       -3.081796
 N         1.489449       -2.280015       -0.900625
3
 generated by VMD
 O         1.217202       -0.615042       -3.641615
 O         2.123080       -0.139687       -3.091886
 N         1.508110       -2.298161       -0.891546
3
 generated by VMD
 O         1.204829       -0.624802       -3.679976
 O         2.154942       -0.143012       -3.098893
 N         1.526350       -2.314728       -0.882702
3
 generated by VMD
 O         1.187464       -0.636491       -3.719850
 O         2.187294       -0.145626       -3.104072
 N         1.545552       -2.332214       -0.874744
3
 generated by VMD
 O         1.169966       -0.645932       -3.758559
 O         2.220336       -0.147592       -3.110450
 N         1.565331       -2.348129       -0.867505
3
 generated by VMD
 O         1.154148       -0.655112       -3.797955
 O         2.253292       -0.149883       -3.117146
 N         1.582769       -2.363927       -0.859831
3
 generated by VMD
 O         1.142629       -0.662301       -3.834598
 O         2.280137       -0.156861       -3.124816
 N         1.599577       -2.378895       -0.852148
3
 generated by VMD
 O         1.132157       -0.666322       -3.867651
 O         2.303188       -0.164867       -3.138154
 N         1.618957       -2.392334       -0.844777
3
 generated by VMD
 O         1.125586       -0.667955       -3.894322
 O         2.324976       -0.174754       -3.154044
 N         1.638660       -2.405726       -0.835963
3
 generated by VMD
 O         1.122801       -0.669211       -3.917074
 O         2.341101       -0.183484       -3.172256
 N         1.659176       -2.421716       -0.828030
3
 generated by VMD
 O         1.124036       -0.668941       -3.939069
 O         2.353427       -0.194907       -3.193053
 N         1.677667       -2.440943       -0.820282
3
 generated by VMD
 O         1.129481       -0.670148       -3.957465
 O         2.361235       -0.205408       -3.216611
 N         1.695982       -2.458267       -0.810436
3
 generated by VMD
 O         1.137939       -0.671188       -3.971457
 O         2.362746       -0.212694       -3.241901
 N         1.711829       -2.472497       -0.802248
3
 generated by VMD
 O         1.149603       -0.670748       -3.984863
 O         2.360340       -0.217999       -3.269484
 N         1.723075       -2.486605       -0.795089
3
 generated by VMD
 O         1.159410       -0.669457       -3.994265
 O         2.357975       -0.224730       -3.295494
 N         1.736389       -2.495549       -0.789825
3
 generated by VMD
 O         1.174456       -0.666310       -4.000632
 O         2.356842       -0.232266       -3.323289
 N         1.747668       -2.502515       -0.783683
3
 generated by VMD
 O         1.193746       -0.666317       -4.002601
 O         2.351284       -0.237942       -3.354517
 N         1.757805       -2.513787       -0.779628
3
 generated by VMD
 O         1.221026       -0.667234       -3.997764
 O         2.342084       -0.246201       -3.385521
 N         1.770139       -2.526488       -0.773702
3
 generated by VMD
 O         1.248590       -0.668492       -3.991353
 O         2.333054       -0.255031       -3.416517
 N         1.784702       -2.540593       -0.765452
3
 generated by VMD
 O         1.278557       -0.670228       -3.983796
 O         2.321833       -0.264191       -3.448117
 N         1.795910       -2.556368       -0.759087
3
 generated by VMD
 O         1.308676       -0.668920       -3.974851
 O         2.311543       -0.274731       -3.476278
 N         1.808340       -2.570319       -0.751624
3
 generated by VMD
 O         1.334209       -0.666145       -3.966714
 O         2.306149       -0.282206       -3.501627
 N         1.820864       -2.582869       -0.747798
3
 generated by VMD
 O         1.356454       -0.665348       -3.960304
 O         2.306362       -0.286828       -3.521874
 N         1.835055       -2.598698       -0.742837
3
 generated by VMD
 O         1.369425       -0.665392       -3.955856
 O         2.313378       -0.290604       -3.535993
 N         1.848249       -2.615577       -0.738280
3
 generated by VMD
 O         1.373918       -0.666178       -3.950615
 O         2.332182       -0.291106       -3.547469
 N         1.860126       -2.632744       -0.734115
3
 generated by VMD
 O         1.369411       -0.669920       -3.943418
 O         2.359694       -0.286216       -3.550918
 N         1.867826       -2.652246       -0.733910
3
 generated by VMD
 O         1.359739       -0.677035       -3.938980
 O         2.390370       -0.276607       -3.551821
 N         1.873707       -2.673865       -0.731733
3
 generated by VMD
 O         1.346463       -0.686454       -3.936845
 O         2.422528       -0.267833       -3.550399
 N         1.878385       -2.694863       -0.730673
3
 generated by VMD
 O         1.332364       -0.695584       -3.934978
 O         2.455502       -0.260165       -3.550289
 N         1.883872       -2.715482       -0.725458
3
 generated by VMD
 O         1.316586       -0.708340       -3.932825
 O         2.487779       -0.255322       -3.547203
 N         1.891923       -2.734272       -0.720360
3
 generated by VMD
 O         1.301855       -0.720310       -3.929480
 O         2.518841       -0.252617       -3.546406
 N         1.900817       -2.750286       -0.716694
3
 generated by VMD
 O         1.288511       -0.730955       -3.924105
 O         2.546014       -0.253247       -3.546802
 N         1.907068       -2.766246       -0.716811
3
 generated by VMD
 O         1.276719       -0.740745       -3.918446
 O         2.568946       -0.253712       -3.543885
 N         1.913132       -2.781120       -0.719501
3
 generated by VMD
 O         1.269243       -0.749345       -3.912319
 O         2.587735       -0.256962       -3.542337
 N         1.918570       -2.795441       -0.720276
3
 generated by VMD
 O         1.263529       -0.758069       -3.902161
 O         2.600153       -0.260777       -3.538715
 N         1.922706       -2.808541       -0.725470
3
 generated by VMD
 O         1.258181       -0.766447       -3.890032
 O         2.606724       -0.266223       -3.536192
 N         1.929916       -2.820037       -0.730276
3
 generated by VMD
 O         1.255835       -0.773161       -3.875825
 O         2.610983       -0.271247       -3.531566
 N         1.936005       -2.832593       -0.734379
3
 generated by VMD
 O         1.258105       -0.779036       -3.855689
 O         2.608650       -0.277347       -3.527832
 N         1.939429       -2.844175       -0.739875
3
 generated by VMD
 O         1.263601       -0.783230       -3.832948
 O         2.603938       -0.283366       -3.525889
 N         1.941365       -2.857306       -0.747459
3
 generated by VMD
 O         1.274823       -0.785797       -3.807765
 O         2.597707       -0.292302       -3.522060
 N         1.943643       -2.872719       -0.754615
3
 generated by VMD
 O         1.287492       -0.785009       -3.784355
 O         2.584501       -0.305674       -3.522368
 N         1.945848       -2.886650       -0.761878
3
 generated by VMD
 O         1.304005       -0.778896       -3.760445
 O         2.570606       -0.320302       -3.524154
 N         1.951273       -2.902040       -0.770225
3
 generated by VMD
 O         1.321380       -0.771942       -3.735319
 O         2.555274       -0.332609       -3.525290
 N         1.955447       -2.914097       -0.778171
3
 generated by VMD
 O         1.342690       -0.765962       -3.709496
 O         2.539300       -0.347842       -3.526601
 N         1.959477       -2.928660       -0.788325
3
 generated by VMD
 O         1.361436       -0.761989       -3.682594
 O         2.521020       -0.370372       -3.530098
 N         1.964853       -2.938450       -0.796780
3
 generated by VMD
 O         1.377250       -0.755611       -3.655203
 O         2.502887       -0.393495       -3.530542
 N         1.966942       -2.944837       -0.804047
3
 generated by VMD
 O         1.393168       -0.749534       -3.627291
 O         2.488451       -0.412819       -3.530805
 N         1.967746       -2.955567       -0.811212
3
 generated by VMD
 O         1.402086       -0.743977       -3.597857
 O         2.480905       -0.427567       -3.533462
 N         1.967781       -2.967678       -0.820299
3
 generated by VMD
 O         1.402874       -0.742106       -3.565421
 O         2.482125       -0.439056       -3.536900
 N         1.967158       -2.978233       -0.830239
3
 generated by VMD
 O         1.396679       -0.741265       -3.535327
 O         2.488377       -0.451567       -3.537072
 N         1.959200       -2.988800       -0.844844
3
 generated by VMD
 O         1.385632       -0.741575       -3.504739
 O         2.502645       -0.462788       -3.537260
 N         1.953262       -2.997988       -0.858611
3
 generated by VMD
 O         1.371921       -0.744662       -3.474272
 O         2.523011       -0.470664       -3.535542
 N         1.947201       -3.006496       -0.872620
3
 generated by VMD
 O         1.356240       -0.749821       -3.443519
 O         2.547163       -0.476850       -3.532873
 N         1.944612       -3.013722       -0.888345
3
 generated by VMD
 O         1.341550       -0.751760       -3.412164
 O         2.568918       -0.481648       -3.532894
 N         1.941599       -3.020734       -0.903094
3
 generated by VMD
 O         1.326986       -0.753150       -3.380996
 O         2.590739       -0.482368       -3.529571
 N         1.939787       -3.028560       -0.915791
3
 generated by VMD
 O         1.313365       -0.754193       -3.345331
 O         2.611240       -0.481832       -3.526256
 N         1.936735       -3.030392       -0.928361
3
 generated by VMD
 O         1.304547       -0.757378       -3.309449
 O         2.629520       -0.478896       -3.522770
 N         1.935248       -3.027710       -0.941732
3
 generated by VMD
 O         1.298844       -0.760516       -3.272554
 O         2.646769       -0.479887       -3.519691
 N         1.935968       -3.026398       -0.955444
3
 generated by VMD
 O         1.299648       -0.765114       -3.237808
 O         2.661392       -0.481043       -3.513116
 N         1.938166       -3.026040       -0.971440
3
 generated by VMD
 O         1.304078       -0.769811       -3.204389
 O         2.672054       -0.485942       -3.507419
 N         1.942828       -3.024472       -0.987398
3
 generated by VMD
 O         1.309791       -0.772221       -3.169193
 O         2.677938       -0.490595       -3.499357
 N         1.947947       -3.023153       -1.003081
3
 generated by VMD
 O         1.316532       -0.775489       -3.133320
 O         2.676823       -0.494190       -3.489405
 N         1.956266       -3.016069       -1.022220
3
 generated by VMD
 O         1.327432       -0.778509       -3.098863
 O         2.670224       -0.496488       -3.475493
 N         1.963971       -3.005759       -1.040007
3
 generated by VMD
 O         1.340553       -0.778653       -3.064792
 O         2.662571       -0.499465       -3.462982
 N         1.969312       -2.998562       -1.058105
3
 generated by VMD
 O         1.359304       -0.775101       -3.032197
 O         2.649429       -0.504215       -3.453904
 N         1.973059       -2.986130       -1.078799
3
 generated by VMD
 O         1.380432       -0.773290       -3.001930
 O         2.635950       -0.510711       -3.442477
 N         1.975234       -2.972549       -1.099236
3
 generated by VMD
 O         1.405342       -0.769015       -2.972491
 O         2.617206       -0.514623       -3.429432
 N         1.976867       -2.955271       -1.120929
3
 generated by VMD
 O         1.432798       -0.764086       -2.941566
 O         2.593858       -0.519189       -3.413801
 N         1.979538       -2.938194       -1.141345
3
 generated by VMD
 O         1.460038       -0.757633       -2.909236
 O         2.573399       -0.525992       -3.399739
 N         1.981162       -2.925252       -1.162029
3
 generated by VMD
 O         1.485034       -0.750281       -2.878099
 O         2.548510       -0.530711       -3.385114
 N         1.984298       -2.913495       -1.181300
3
 generated by VMD
 O         1.509448       -0.744465       -2.847569
 O         2.521102       -0.537253       -3.369282
 N         1.988231       -2.901223       -1.201098
3
 generated by VMD
 O         1.528918       -0.740745       -2.815100
 O         2.497498       -0.541721       -3.357789
 N         1.992343       -2.883564       -1.221852
3
 generated by VMD
 O         1.539997       -0.740605       -2.778747
 O         2.481498       -0.542884       -3.349352
 N         1.994715       -2.864462       -1.241426
3
 generated by VMD
 O         1.544556       -0.742548       -2.737881
 O         2.475323       -0.543840       -3.341477
 N         1.994011       -2.843936       -1.258784
3
 generated by VMD
 O         1.543732       -0.745541       -2.692381
 O         2.473810       -0.544522       -3.336412
 N         1.994696       -2.820162       -1.272899
3
 generated by VMD
 O         1.534962       -0.749886       -2.645691
 O         2.473228       -0.544015       -3.335665
 N         1.997054       -2.795994       -1.286117
3
 generated by VMD
 O         1.524329       -0.750829       -2.596804
 O         2.471879       -0.543169       -3.337239
 N         1.997834       -2.771997       -1.299153
3
 generated by VMD
 O         1.510973       -0.754976       -2.545271
 O         2.472475       -0.541586       -3.337780
 N         1.995962       -2.748161       -1.314457
3
 generated by VMD
 O         1.500313       -0.757039       -2.497347
 O         2.470702       -0.540251       -3.338089
 N         1.991296       -2.725533       -1.328714
3
 generated by VMD
 O         1.493211       -0.760182       -2.451925
 O         2.464968       -0.540409       -3.336399
 N         1.988446       -2.702627       -1.344645
3
 generated by VMD
 O         1.487718       -0.761607       -2.407750
 O         2.456326       -0.541435       -3.334358
 N         1.984109       -2.677090       -1.363067
3
 generated by VMD
 O         1.482428       -0.761983       -2.366740
 O         2.445424       -0.540877       -3.329441
 N         1.978120       -2.652419       -1.376954
3
 generated by VMD
 O         1.482538       -0.759651       -2.327070
 O         2.432869       -0.540021       -3.326106
 N         1.968255       -2.628182       -1.389051
3
 generated by VMD
 O         1.483345       -0.755932       -2.288076
 O         2.418055       -0.538103       -3.318510
 N         1.959319       -2.602099       -1.399152
3
 generated by VMD
 O         1.485636       -0.751309       -2.252866
 O         2.400203       -0.534237       -3.310860
 N         1.949146       -2.576243       -1.408419
3
 generated by VMD
 O         1.489409       -0.744694       -2.219295
 O         2.378294       -0.528818       -3.298033
 N         1.935386       -2.546514       -1.420999
3
 generated by VMD
 O         1.496457       -0.737428       -2.188815
 O         2.354674       -0.522421       -3.289799
 N         1.921842       -2.514591       -1.432369
3
 generated by VMD
 O         1.503503       -0.730833       -2.161493
 O         2.329921       -0.513190       -3.281724
 N         1.910559       -2.479952       -1.444343
3
 generated by VMD
 O         1.511674       -0.723488       -2.136938
 O         2.303360       -0.502798       -3.272187
 N         1.902135       -2.443275       -1.455755
3
 generated by VMD
 O         1.519112       -0.713793       -2.114851
 O         2.275982       -0.492822       -3.261477
 N         1.894998       -2.404912       -1.466047
3
 generated by VMD
 O         1.527967       -0.698413       -2.091650
 O         2.242416       -0.483411       -3.250096
 N         1.886984       -2.365772       -1.476061
3
 generated by VMD
 O         1.538974       -0.684015       -2.068414
 O         2.208857       -0.471692       -3.237127
 N         1.881307       -2.331327       -1.485893
3
 generated by VMD
 O         1.547798       -0.669922       -2.044059
 O         2.174266       -0.461049       -3.222305
 N         1.874623       -2.292187       -1.499624
3
 generated by VMD
 O         1.556466       -0.657606       -2.019696
 O         2.137926       -0.449023       -3.208097
 N         1.869328       -2.255161       -1.516379
3
 generated by VMD
 O         1.563797       -0.643081       -1.993349
 O         2.102648       -0.436362       -3.193598
 N         1.867367       -2.218929       -1.531438
3
 generated by VMD
 O         1.571175       -0.628469       -1.964589
 O         2.067246       -0.421753       -3.178919
 N         1.864428       -2.181591       -1.548994
3
 generated by VMD
 O         1.578020       -0.611122       -1.937337
 O         2.033585       -0.405887       -3.166625
 N         1.859247       -2.142770       -1.564697
3
 generated by VMD
 O         1.585002       -0.593302       -1.910057
 O         2.000179       -0.391523       -3.154036
 N         1.854169       -2.103022       -1.581918
3
 generated by VMD
 O         1.593327       -0.577322       -1.882715
 O         1.967898       -0.377567       -3.142936
 N         1.847766       -2.064334       -1.598840
3
 generated by VMD
 O         1.601156       -0.564453       -1.855624
 O         1.936358       -0.365132       -3.130553
 N         1.845563       -2.026604       -1.614033
3
 generated by VMD
 O         1.606160       -0.552011       -1.827434
 O         1.905168       -0.349781       -3.120547
 N         1.840523       -1.986808       -1.631706
3
 generated by VMD
 O         1.609042       -0.539606       -1.801814
 O         1.875948       -0.332120       -3.109111
 N         1.834822       -1.944636       -1.652982
3
 generated by VMD
 O         1.617177       -0.528599       -1.777648
 O         1.848572       -0.313273       -3.096446
 N         1.829869       -1.902021       -1.671487
3
 generated by VMD
 O         1.626570       -0.518251       -1.752930
 O         1.819542       -0.291471       -3.085300
 N         1.824148       -1.855879       -1.687548
3
 generated by VMD
 O         1.634535       -0.507779       -1.727370
 O         1.790899       -0.268489       -3.075458
 N         1.818291       -1.813581       -1.700954
3
 generated by VMD
 O         1.645254       -0.497937       -1.699249
 O         1.763353       -0.244805       -3.071335
 N         1.816132       -1.771817       -1.714989
3
 generated by VMD
 O         1.654573       -0.487419       -1.670262
 O         1.734867       -0.217149       -3.065346
 N         1.815694       -1.732225       -1.723052
3
 generated by VMD
 O         1.663141       -0.473678       -1.645688
 O         1.709117       -0.186786       -3.055253
 N         1.817278       -1.690702       -1.733339
3
 generated by VMD
 O         1.671528       -0.461260       -1.618134
 O         1.681371       -0.154657       -3.047441
 N         1.821362       -1.650507       -1.746234
3
 generated by VMD
 O         1.682126       -0.446778       -1.590303
 O         1.652544       -0.120244       -3.041683
 N         1.821982       -1.612144       -1.756609
3
 generated by VMD
 O         1.692992       -0.432716       -1.559533
 O         1.624684       -0.085900       -3.039403
 N         1.819075       -1.576503       -1.769214
3
 generated by VMD
 O         1.704390       -0.416937       -1.530447
 O         1.596955       -0.049657       -3.035966
 N         1.818754       -1.545244       -1.782326
3
 generated by VMD
 O         1.716148       -0.404234       -1.500220
 O         1.568193       -0.015972       -3.037958
 N         1.817177       -1.514984       -1.792756
3
 generated by VMD
 O         1.725586       -0.391268       -1.468844
 O         1.538556        0.017229       -3.039485
 N         1.820267       -1.489516       -1.805951
3
 generated by VMD
 O         1.736127       -0.377036       -1.434875
 O         1.509933        0.048394       -3.041283
 N         1.824054       -1.463051       -1.815494
3
 generated by VMD
 O         1.747118       -0.363692       -1.400181
 O         1.481149        0.081346       -3.043643
 N         1.826668       -1.435121       -1.819518
3
 generated by VMD
 O         1.758410       -0.353076       -1.364031
 O         1.456004        0.113704       -3.046299
 N         1.826691       -1.409347       -1.821936
3
 generated by VMD
 O         1.770282       -0.341682       -1.324744
 O         1.429710        0.145260       -3.050482
 N         1.824852       -1.387768       -1.821902
3
 generated by VMD
 O         1.778184       -0.329236       -1.286577
 O         1.402678        0.173851       -3.058764
 N         1.824265       -1.368090       -1.818268
3
 generated by VMD
 O         1.785066       -0.319127       -1.247094
 O         1.376931        0.201185       -3.069089
 N         1.824465       -1.349521       -1.816221
3
 generated by VMD
 O         1.794048       -0.310210       -1.211475
 O         1.351987        0.228853       -3.082330
 N         1.825298       -1.328229       -1.813097
3
 generated by VMD
 O         1.805256       -0.301355       -1.174353
 O         1.325912        0.256804       -3.098973
 N         1.827884       -1.305500       -1.806844
3
 generated by VMD
 O         1.819105       -0.294708       -1.135053
 O         1.301724        0.284016       -3.114389
 N         1.831859       -1.280235       -1.798174
3
 generated by VMD
 O         1.832387       -0.290389       -1.097794
 O         1.277058        0.309146       -3.126611
 N         1.833977       -1.251063       -1.791625
3
 generated by VMD
 O         1.845847       -0.290052       -1.059596
 O         1.253310        0.334213       -3.139072
 N         1.832083       -1.220462       -1.781524
3
 generated by VMD
 O         1.859433       -0.284920       -1.020594
 O         1.231741        0.358431       -3.149775
 N         1.828805       -1.187196       -1.770423
3
 generated by VMD
 O         1.874260       -0.279914       -0.981812
 O         1.211148        0.377786       -3.161927
 N         1.820414       -1.153717       -1.756348
3
 generated by VMD
 O         1.889178       -0.275814       -0.945196
 O         1.192024        0.396778       -3.174693
 N         1.811799       -1.122096       -1.740724
3
 generated by VMD
 O         1.905662       -0.274610       -0.906358
 O         1.173501        0.414534       -3.187458
 N         1.805030       -1.090104       -1.723465
3
 generated by VMD
 O         1.922287       -0.273435       -0.863243
 O         1.152947        0.428002       -3.198946
 N         1.800967       -1.057327       -1.707341
3
 generated by VMD
 O         1.939811       -0.272891       -0.817668
 O         1.132373        0.443715       -3.208329
 N         1.792727       -1.027082       -1.691240
3
 generated by VMD
 O         1.960204       -0.272437       -0.773688
 O         1.111295        0.459237       -3.215266
 N         1.785522       -0.995305       -1.675949
3
 generated by VMD
 O         1.978933       -0.274744       -0.730041
 O         1.090420        0.475187       -3.220458
 N         1.780009       -0.960086       -1.664941
3
 generated by VMD
 O         1.996309       -0.276947       -0.687803
 O         1.070572        0.494414       -3.223703
 N         1.773967       -0.927020       -1.654860
3
 generated by VMD
 O         2.016159       -0.276178       -0.648296
 O         1.051957        0.512827       -3.230944
 N         1.769809       -0.892976       -1.642801
3
 generated by VMD
 O         2.034772       -0.276013       -0.607497
 O         1.028906        0.532893       -3.239964
 N         1.764634       -0.858067       -1.629784
3
 generated by VMD
 O         2.051925       -0.274065       -0.572853
 O         1.006792        0.551592       -3.248764
 N         1.759626       -0.821698       -1.615184
3
 generated by VMD
 O         2.070553       -0.271284       -0.539362
 O         0.986415        0.571437       -3.255952
 N         1.753698       -0.782185       -1.600255
3
 generated by VMD
 O         2.086592       -0.269172       -0.505239
 O         0.965538        0.589168       -3.262636
 N         1.749832       -0.738934       -1.582244
3
 generated by VMD
 O         2.101693       -0.267465       -0.471670
 O         0.944964        0.605651       -3.266188
 N         1.748227       -0.696614       -1.562118
3
 generated by VMD
 O         2.119324       -0.267533       -0.439450
 O         0.926131        0.622184       -3.268978
 N         1.745661       -0.655355       -1.538490
3
 generated by VMD
 O         2.133410       -0.269268       -0.409348
 O         0.904740        0.637564       -3.275642
 N         1.739482       -0.613574       -1.514512
3
 generated by VMD
 O         2.146947       -0.270112       -0.384757
 O         0.886027        0.653190       -3.282088
 N         1.735615       -0.574747       -1.488706
3
 generated by VMD
 O         2.159018       -0.273119       -0.363252
 O         0.867646        0.667792       -3.288364
 N         1.731174       -0.533737       -1.465644
3
 generated by VMD
 O         2.169805       -0.277325       -0.347580
 O         0.848161        0.681300       -3.292159
 N         1.727295       -0.494709       -1.445285
3
 generated by VMD
 O         2.180331       -0.283718       -0.333164
 O         0.828651        0.693026       -3.291491
 N         1.720277       -0.456387       -1.423602
3
 generated by VMD
 O         2.191258       -0.287683       -0.321286
 O         0.809658        0.708619       -3.288986
 N         1.713864       -0.420270       -1.397775
3
 generated by VMD
 O         2.204136       -0.291086       -0.311549
 O         0.789102        0.725825       -3.288186
 N         1.705873       -0.383338       -1.374043
3
 generated by VMD
 O         2.216424       -0.293067       -0.298977
 O         0.768839        0.741881       -3.286786
 N         1.694973       -0.350191       -1.354172
3
 generated by VMD
 O         2.227297       -0.295266       -0.290328
 O         0.749481        0.757067       -3.283959
 N         1.686286       -0.319088       -1.339137
3
 generated by VMD
 O         2.239589       -0.297961       -0.281536
 O         0.728582        0.770952       -3.276778
 N         1.679964       -0.291073       -1.323800
3
 generated by VMD
 O         2.251877       -0.301224       -0.271837
 O         0.705590        0.789792       -3.272005
 N         1.673343       -0.263320       -1.310332
3
 generated by VMD
 O         2.262930       -0.303921       -0.264876
 O         0.683152        0.808939       -3.268659
 N         1.667974       -0.235149       -1.298088
3
 generated by VMD
 O         2.275125       -0.304373       -0.257941
 O         0.660180        0.828063       -3.268078
 N         1.666628       -0.211001       -1.288479
3
 generated by VMD
 O         2.284673       -0.305066       -0.250180
 O         0.638265        0.847100       -3.263963
 N         1.669089       -0.187304       -1.278960
3
 generated by VMD
 O         2.295593       -0.301897       -0.246298
 O         0.615502        0.866927       -3.262325
 N         1.669981       -0.162632       -1.270199
3
 generated by VMD
 O         2.303620       -0.295365       -0.241865
 O         0.590103        0.888746       -3.259913
 N         1.667452       -0.140184       -1.261308
3
 generated by VMD
 O         2.309533       -0.288429       -0.236588
 O         0.562983        0.912159       -3.256150
 N         1.670094       -0.118349       -1.253840
3
 generated by VMD
 O         2.313708       -0.282746       -0.232932
 O         0.537965        0.936382       -3.250112
 N         1.674231       -0.094643       -1.241356
3
 generated by VMD
 O         2.313979       -0.275815       -0.228705
 O         0.512482        0.955610       -3.244746
 N         1.680874       -0.072202       -1.223731
3
 generated by VMD
 O         2.311663       -0.267467       -0.223966
 O         0.489991        0.973520       -3.239316
 N         1.688277       -0.049698       -1.205162
3
 generated by VMD
 O         2.307969       -0.257538       -0.217278
 O         0.464236        0.988881       -3.234627
 N         1.698653       -0.029761       -1.186226
3
 generated by VMD
 O         2.304599       -0.248884       -0.208309
 O         0.437954        1.007920       -3.229995
 N         1.706797       -0.009843       -1.170118
3
 generated by VMD
 O         2.303974       -0.239766       -0.198833
 O         0.411545        1.027302       -3.225071
 N         1.715882        0.009980       -1.155254
3
 generated by VMD
 O         2.301939       -0.230415       -0.187744
 O         0.385484        1.045864       -3.220071
 N         1.724836        0.030881       -1.142786
3
 generated by VMD
 O         2.301725       -0.219648       -0.176797
 O         0.362850        1.064945       -3.216087
 N         1.730577        0.048835       -1.128556
3
 generated by VMD
 O         2.305589       -0.209627       -0.165306
 O         0.340114        1.085648       -3.210194
 N         1.735414        0.065352       -1.115756
3
 generated by VMD
 O         2.312327       -0.200081       -0.151928
 O         0.315717        1.105974       -3.202924
 N         1.740085        0.084968       -1.104898
3
 generated by VMD
 O         2.319945       -0.187582       -0.138151
 O         0.291765        1.127008       -3.195755
 N         1.742057        0.105720       -1.093222
3
 generated by VMD
 O         2.328124       -0.178872       -0.123071
 O         0.268257        1.143809       -3.188837
 N         1.738904        0.124023       -1.084383
3
 generated by VMD
 O         2.337809       -0.169218       -0.108751
 O         0.245073        1.161231       -3.180820
 N         1.735742        0.143302       -1.075095
3
 generated by VMD
 O         2.346470       -0.160828       -0.092751
 O         0.221618        1.179598       -3.170424
 N         1.734887        0.160585       -1.068313
3
 generated by VMD
 O         2.355641       -0.152788       -0.079399
 O         0.199236        1.197505       -3.157723
 N         1.736861        0.177079       -1.060071
3
 generated by VMD
 O         2.365409       -0.145471       -0.069310
 O         0.176801        1.218591       -3.143834
 N         1.740440        0.196088       -1.050188
3
 generated by VMD
 O         2.372065       -0.137788       -0.060861
 O         0.153581        1.237940       -3.128351
 N         1.745493        0.215068       -1.039241
3
 generated by VMD
 O         2.381223       -0.127593       -0.052303
 O         0.133936        1.255695       -3.112394
 N         1.749180        0.232283       -1.024403
3
 generated by VMD
 O         2.389666       -0.116864       -0.045115
 O         0.114277        1.272412       -3.097426
 N         1.754404        0.248246       -1.007202
3
 generated by VMD
 O         2.398420       -0.108320       -0.042946
 O         0.092970        1.288467       -3.081612
 N         1.762845        0.263625       -0.992318
3
 generated by VMD
 O         2.407223       -0.102311       -0.041823
 O         0.072908        1.303840       -3.066682
 N         1.770225        0.278660       -0.981305
3
 generated by VMD
 O         2.411313       -0.094428       -0.040347
 O         0.054382        1.318027       -3.053295
 N         1.779073        0.295354       -0.970136
3
 generated by VMD
 O         2.417219       -0.084085       -0.037050
 O         0.033719        1.334840       -3.038619
 N         1.786114        0.312658       -0.954109
3
 generated by VMD
 O         2.423579       -0.072951       -0.034326
 O         0.014587        1.351061       -3.024373
 N         1.794215        0.327778       -0.938843
3
 generated by VMD
 O         2.430203       -0.060690       -0.032751
 O        -0.002660        1.367726       -3.012094
 N         1.797228        0.345050       -0.921482
3
 generated by VMD
 O         2.440515       -0.047403       -0.030602
 O        -0.022151        1.383469       -2.996599
 N         1.799886        0.361521       -0.905969
3
 generated by VMD
 O         2.452256       -0.034506       -0.028516
 O        -0.043840        1.401158       -2.980716
 N         1.802269        0.376211       -0.890182
3
 generated by VMD
 O         2.465485       -0.022221       -0.024787
 O        -0.063624        1.421379       -2.960594
 N         1.802191        0.392881       -0.876806
3
 generated by VMD
 O         2.480217       -0.012334       -0.018790
 O        -0.080804        1.439702       -2.944616
 N         1.797422        0.407766       -0.862385
3
 generated by VMD
 O         2.496738       -0.002505       -0.013888
 O        -0.097367        1.458674       -2.927955
 N         1.788777        0.423774       -0.851443
3
 generated by VMD
 O         2.516773        0.005231       -0.008247
 O        -0.112248        1.480932       -2.909353
 N         1.780362        0.440427       -0.838838
3
 generated by VMD
 O         2.535773        0.014100       -0.003772
 O        -0.127343        1.505406       -2.888417
 N         1.773514        0.456661       -0.825770
3
 generated by VMD
 O         2.554172        0.024779        0.001530
 O        -0.142110        1.528201       -2.867868
 N         1.767427        0.470943       -0.814596
3
 generated by VMD
 O         2.568453        0.034775        0.006559
 O        -0.156847        1.548859       -2.846542
 N         1.762325        0.484866       -0.802271
3
 generated by VMD
 O         2.580506        0.042412        0.010224
 O        -0.169198        1.568852       -2.827059
 N         1.761225        0.495827       -0.788874
3
 generated by VMD
 O         2.593477        0.048591        0.010647
 O        -0.182847        1.589784       -2.806753
 N         1.767529        0.506503       -0.774853
3
 generated by VMD
 O         2.602095        0.055088        0.011443
 O        -0.198862        1.609748       -2.786454
 N         1.773272        0.514728       -0.761911
3
 generated by VMD
 O         2.607385        0.062671        0.007662
 O        -0.212741        1.630105       -2.766312
 N         1.783112        0.525760       -0.750252
3
 generated by VMD
 O         2.609833        0.070960        0.002342
 O        -0.225218        1.648083       -2.748523
 N         1.795674        0.537960       -0.737759
3
 generated by VMD
 O         2.610246        0.079846       -0.002390
 O        -0.233547        1.663065       -2.731575
 N         1.807905        0.550307       -0.724666
3
 generated by VMD
 O         2.613395        0.090520       -0.004450
 O        -0.243828        1.677606       -2.712896
 N         1.822626        0.558888       -0.710162
3
 generated by VMD
 O         2.616007        0.098087       -0.003509
 O        -0.255337        1.690852       -2.693853
 N         1.836948        0.568419       -0.694254
3
 generated by VMD
 O         2.619258        0.106424       -0.001345
 O        -0.265940        1.703668       -2.674026
 N         1.847621        0.576711       -0.685022
3
 generated by VMD
 O         2.627882        0.114629        0.003503
 O        -0.277180        1.713314       -2.655943
 N         1.858729        0.585114       -0.675907
3
 generated by VMD
 O         2.639730        0.120482        0.008309
 O        -0.287141        1.723819       -2.636130
 N         1.866203        0.593855       -0.668127
3
 generated by VMD
 O         2.650627        0.126471        0.016817
 O        -0.298643        1.733005       -2.616871
 N         1.875924        0.603580       -0.660753
3
 generated by VMD
 O         2.660635        0.130242        0.028242
 O        -0.310539        1.738016       -2.598500
 N         1.881275        0.613319       -0.653592
3
 generated by VMD
 O         2.671350        0.134408        0.041933
 O        -0.319633        1.739650       -2.580635
 N         1.882411        0.619788       -0.645839
3
 generated by VMD
 O         2.680522        0.134956        0.056526
 O        -0.327800        1.744166       -2.565151
 N         1.877751        0.622878       -0.636544
3
 generated by VMD
 O         2.691347        0.135050        0.070786
 O        -0.335684        1.750212       -2.551285
 N         1.871991        0.628734       -0.625958
3
 generated by VMD
 O         2.701197        0.135461        0.084395
 O        -0.345199        1.753204       -2.538234
 N         1.864323        0.632858       -0.616411
3
 generated by VMD
 O         2.712769        0.138188        0.094209
 O        -0.354090        1.759523       -2.524983
 N         1.855684        0.638383       -0.604801
3
 generated by VMD
 O         2.721272        0.143432        0.103980
 O        -0.364352        1.765750       -2.509957
 N         1.848275        0.642200       -0.593651
3
 generated by VMD
 O         2.726956        0.150097        0.113211
 O        -0.376010        1.773190       -2.492473
 N         1.841690        0.646031       -0.579803
3
 generated by VMD
 O         2.731435        0.156016        0.120050
 O        -0.386788        1.780503       -2.475674
 N         1.837579        0.648423       -0.565316
3
 generated by VMD
 O         2.733050        0.163695        0.124935
 O        -0.399165        1.791192       -2.458632
 N         1.832226        0.654399       -0.547473
3
 generated by VMD
 O         2.731397        0.172005        0.127239
 O        -0.408960        1.801468       -2.442997
 N         1.822296        0.658815       -0.531758
3
 generated by VMD
 O         2.730180        0.179203        0.129136
 O        -0.420378        1.810402       -2.426836
 N         1.814161        0.662356       -0.518781
3
 generated by VMD
 O         2.727698        0.188651        0.128911
 O        -0.429646        1.819093       -2.410868
 N         1.807942        0.667040       -0.500245
3
 generated by VMD
 O         2.724445        0.198123        0.131821
 O        -0.440620        1.828500       -2.394858
 N         1.802690        0.670807       -0.478772
3
 generated by VMD
 O         2.720153        0.207820        0.135117
 O        -0.448005        1.839720       -2.378665
 N         1.800268        0.674960       -0.460198
3
 generated by VMD
 O         2.718166        0.215451        0.141532
 O        -0.456980        1.849983       -2.363550
 N         1.800207        0.681547       -0.444315
3
 generated by VMD
 O         2.713479        0.222134        0.143204
 O        -0.466127        1.859087       -2.341582
 N         1.800792        0.687620       -0.427836
3
 generated by VMD
 O         2.709663        0.229372        0.144971
 O        -0.477599        1.868095       -2.320172
 N         1.797971        0.695676       -0.411683
3
 generated by VMD
 O         2.705453        0.236967        0.144244
 O        -0.486989        1.876246       -2.299457
 N         1.794177        0.703953       -0.393421
3
 generated by VMD
 O         2.699930        0.247813        0.140292
 O        -0.494885        1.885692       -2.279866
 N         1.791270        0.711234       -0.377447
3
 generated by VMD
 O         2.697160        0.254075        0.137340
 O        -0.500894        1.895431       -2.260669
 N         1.788618        0.720267       -0.364461
3
 generated by VMD
 O         2.696704        0.259356        0.135475
 O        -0.506369        1.905806       -2.242222
 N         1.782564        0.732178       -0.351700
3
 generated by VMD
 O         2.698101        0.263138        0.137865
 O        -0.512053        1.916781       -2.222112
 N         1.774040        0.742764       -0.341029
3
 generated by VMD
 O         2.700689        0.266616        0.137989
 O        -0.518502        1.930841       -2.203627
 N         1.765208        0.754708       -0.334046
3
 generated by VMD
 O         2.704238        0.270794        0.137048
 O        -0.523839        1.945515       -2.183053
 N         1.754616        0.767969       -0.325170
3
 generated by VMD
 O         2.709314        0.275259        0.136799
 O        -0.528520        1.959489       -2.165800
 N         1.741701        0.781926       -0.320655
3
 generated by VMD
 O         2.716680        0.278850        0.135556
 O        -0.532683        1.975420       -2.151855
 N         1.721222        0.796153       -0.313228
3
 generated by VMD
 O         2.726438        0.285358        0.134683
 O        -0.537115        1.994472       -2.134649
 N         1.706064        0.808752       -0.307761
3
 generated by VMD
 O         2.733736        0.292220        0.133727
 O        -0.545470        2.013714       -2.116833
 N         1.692578        0.818234       -0.303665
3
 generated by VMD
 O         2.734536        0.300814        0.133670
 O        -0.552312        2.031413       -2.099278
 N         1.685388        0.824279       -0.297560
3
 generated by VMD
 O         2.731901        0.309539        0.131176
 O        -0.561081        2.045694       -2.079874
 N         1.679594        0.832070       -0.285755
3
 generated by VMD
 O         2.726048        0.319592        0.127182
 O        -0.571755        2.061035       -2.061025
 N         1.674553        0.835766       -0.274224
3
 generated by VMD
 O         2.718370        0.329546        0.121711
 O        -0.582199        2.076068       -2.039419
 N         1.667757        0.839248       -0.262737
3
 generated by VMD
 O         2.709064        0.339958        0.116985
 O        -0.592625        2.086573       -2.017252
 N         1.662860        0.842898       -0.253230
3
 generated by VMD
 O         2.699605        0.349427        0.113427
 O        -0.602831        2.095760       -1.993454
 N         1.660185        0.844816       -0.243662
3
 generated by VMD
 O         2.690895        0.358067        0.112249
 O        -0.612264        2.102515       -1.968277
 N         1.656041        0.847037       -0.234296
3
 generated by VMD
 O         2.681853        0.369703        0.110103
 O        -0.620720        2.106696       -1.942446
 N         1.653830        0.846452       -0.221862
3
 generated by VMD
 O         2.674709        0.379465        0.106627
 O        -0.627802        2.110524       -1.915375
 N         1.652175        0.846875       -0.209681
3
 generated by VMD
 O         2.669862        0.389201        0.105192
 O        -0.636726        2.115354       -1.888569
 N         1.647312        0.850906       -0.196666
3
 generated by VMD
 O         2.666763        0.398618        0.105238
 O        -0.644745        2.120797       -1.860152
 N         1.643423        0.857535       -0.181657
3
 generated by VMD
 O         2.667089        0.408399        0.106035
 O        -0.654212        2.128554       -1.835161
 N         1.637190        0.863231       -0.168409
3
 generated by VMD
 O         2.666422        0.417843        0.105999
 O        -0.661361        2.134909       -1.811269
 N         1.630992        0.870937       -0.156692
3
 generated by VMD
 O         2.668623        0.420968        0.105994
 O        -0.666448        2.140777       -1.788006
 N         1.624653        0.879733       -0.143117
3
 generated by VMD
 O         2.674021        0.424688        0.106784
 O        -0.671073        2.143828       -1.763496
 N         1.619600        0.890520       -0.131229
3
 generated by VMD
 O         2.679374        0.425248        0.106277
 O        -0.676640        2.147370       -1.742034
 N         1.610684        0.899577       -0.119366
3
 generated by VMD
 O         2.687655        0.424595        0.105467
 O        -0.685051        2.150429       -1.719915
 N         1.603524        0.907229       -0.107310
3
 generated by VMD
 O         2.693397        0.423193        0.106573
 O        -0.693891        2.155424       -1.698323
 N         1.596086        0.910295       -0.096770
3
 generated by VMD
 O         2.697987        0.424289        0.108408
 O        -0.701638        2.159092       -1.677655
 N         1.590521        0.913969       -0.085562
3
 generated by VMD
 O         2.700462        0.425894        0.111227
 O        -0.711259        2.162374       -1.659664
 N         1.588594        0.919762       -0.074604
3
 generated by VMD
 O         2.701553        0.426726        0.112207
 O        -0.721096        2.167026       -1.639793
 N         1.591501        0.926987       -0.062495
3
 generated by VMD
 O         2.701786        0.428097        0.112826
 O        -0.731313        2.173342       -1.619228
 N         1.599820        0.932400       -0.049192
3
 generated by VMD
 O         2.700274        0.429707        0.107779
 O        -0.738526        2.181309       -1.598929
 N         1.609985        0.940055       -0.035351
3
 generated by VMD
 O         2.698020        0.434384        0.101638
 O        -0.746484        2.193075       -1.577410
 N         1.622397        0.947853       -0.016617
3
 generated by VMD
 O         2.693689        0.442875        0.093415
 O        -0.756900        2.204964       -1.554920
 N         1.637411        0.958026        0.000760
3
 generated by VMD
 O         2.691837        0.453851        0.085632
 O        -0.768084        2.218189       -1.532563
 N         1.655873        0.965724        0.016088
3
 generated by VMD
 O         2.691480        0.467872        0.079195
 O        -0.781774        2.230316       -1.508638
 N         1.670991        0.976223        0.027915
3
 generated by VMD
 O         2.693499        0.481053        0.074807
 O        -0.793046        2.240271       -1.485906
 N         1.683684        0.988194        0.041801
3
 generated by VMD
 O         2.699410        0.492331        0.069425
 O        -0.804320        2.251146       -1.462820
 N         1.692012        1.003265        0.056530
3
 generated by VMD
 O         2.709178        0.502063        0.063985
 O        -0.814413        2.261604       -1.441768
 N         1.700493        1.019003        0.071875
3
 generated by VMD
 O         2.723919        0.511753        0.057435
 O        -0.822496        2.272095       -1.423005
 N         1.703850        1.037174        0.088351
3
 generated by VMD
 O         2.741088        0.522260        0.051487
 O        -0.825849        2.280324       -1.405828
 N         1.704206        1.054620        0.109722
3
 generated by VMD
 O         2.758916        0.536010        0.044556
 O        -0.825598        2.287409       -1.388207
 N         1.702161        1.072812        0.129689
3
 generated by VMD
 O         2.775724        0.546720        0.039521
 O        -0.823847        2.291680       -1.369200
 N         1.701830        1.089273        0.148264
3
 generated by VMD
 O         2.796099        0.561482        0.038780
 O        -0.823786        2.295040       -1.349186
 N         1.704045        1.103223        0.164568
3
 generated by VMD
 O         2.813864        0.576690        0.038416
 O        -0.825541        2.299971       -1.329728
 N         1.709821        1.116824        0.177496
3
 generated by VMD
 O         2.828623        0.594922        0.041645
 O        -0.828562        2.302970       -1.310375
 N         1.718769        1.129733        0.191448
3
 generated by VMD
 O         2.842814        0.613832        0.044772
 O        -0.834234        2.305691       -1.292219
 N         1.730949        1.147540        0.206714
3
 generated by VMD
 O         2.856165        0.636432        0.045039
 O        -0.838193        2.307601       -1.274567
 N         1.749051        1.162454        0.222121
