5
 generated by VMD
 N        -0.011173       -4.717012       -1.364739
 O        -0.735380       -4.124705       -1.944777
 O         3.731611       -2.473340        1.859903
 O         3.716313       -1.203540        1.985408
 O         2.687597       -0.645281        1.685195
5
 generated by VMD
 N        -0.012642       -4.692151       -1.354439
 O        -0.739741       -4.108532       -1.939813
 O         3.719431       -2.451382        1.854659
 O         3.704494       -1.202735        1.978156
 O         2.680129       -0.646932        1.682529
5
 generated by VMD
 N        -0.009281       -4.666289       -1.341978
 O        -0.742692       -4.091049       -1.935763
 O         3.706927       -2.429761        1.843270
 O         3.693838       -1.206237        1.969568
 O         2.671919       -0.644311        1.679111
5
 generated by VMD
 N        -0.008090       -4.639056       -1.328456
 O        -0.746443       -4.070051       -1.930525
 O         3.696007       -2.406096        1.832334
 O         3.686033       -1.209343        1.962697
 O         2.660773       -0.640603        1.673826
5
 generated by VMD
 N        -0.005875       -4.611739       -1.314128
 O        -0.752701       -4.045546       -1.926498
 O         3.686649       -2.381155        1.818642
 O         3.678587       -1.213304        1.956798
 O         2.646228       -0.634354        1.666391
5
 generated by VMD
 N         0.001241       -4.583961       -1.296434
 O        -0.762636       -4.018117       -1.923544
 O         3.677594       -2.353945        1.805372
 O         3.670830       -1.216825        1.950832
 O         2.631461       -0.626086        1.658739
5
 generated by VMD
 N         0.006428       -4.559475       -1.276555
 O        -0.775420       -3.988392       -1.917608
 O         3.666796       -2.333762        1.792971
 O         3.661963       -1.216278        1.942018
 O         2.612886       -0.614817        1.653978
5
 generated by VMD
 N         0.011369       -4.530317       -1.256717
 O        -0.791399       -3.961344       -1.908028
 O         3.653570       -2.320841        1.775864
 O         3.653517       -1.211697        1.932659
 O         2.593346       -0.600833        1.651798
5
 generated by VMD
 N         0.017116       -4.496725       -1.236681
 O        -0.807091       -3.930399       -1.897437
 O         3.641808       -2.312702        1.759583
 O         3.644088       -1.201822        1.925574
 O         2.573223       -0.584953        1.649724
5
 generated by VMD
 N         0.018787       -4.463653       -1.217843
 O        -0.817401       -3.898888       -1.883529
 O         3.629209       -2.310402        1.744537
 O         3.633749       -1.183989        1.916134
 O         2.553660       -0.569588        1.646792
5
 generated by VMD
 N         0.021741       -4.426546       -1.200597
 O        -0.825054       -3.868217       -1.864952
 O         3.616795       -2.310502        1.729151
 O         3.622196       -1.162580        1.910349
 O         2.534441       -0.553610        1.644191
5
 generated by VMD
 N         0.024192       -4.385522       -1.185353
 O        -0.831778       -3.836845       -1.847442
 O         3.600055       -2.310414        1.714922
 O         3.608507       -1.133134        1.903324
 O         2.516499       -0.534593        1.639242
5
 generated by VMD
 N         0.025370       -4.340178       -1.172190
 O        -0.835617       -3.807159       -1.828852
 O         3.586036       -2.312511        1.697693
 O         3.591873       -1.098247        1.892478
 O         2.498716       -0.515359        1.633015
5
 generated by VMD
 N         0.022199       -4.292431       -1.164196
 O        -0.835066       -3.779890       -1.806455
 O         3.571904       -2.316200        1.682847
 O         3.573253       -1.059503        1.880132
 O         2.481840       -0.494702        1.627965
5
 generated by VMD
 N         0.016950       -4.238239       -1.155801
 O        -0.827893       -3.749622       -1.778197
 O         3.558405       -2.322908        1.666036
 O         3.551540       -1.022372        1.866269
 O         2.463097       -0.471775        1.621726
5
 generated by VMD
 N         0.008792       -4.180193       -1.145845
 O        -0.821857       -3.719728       -1.748850
 O         3.544267       -2.326064        1.648096
 O         3.528132       -0.989180        1.851250
 O         2.446403       -0.448232        1.613155
5
 generated by VMD
 N         0.000200       -4.121237       -1.134856
 O        -0.812001       -3.688282       -1.720997
 O         3.532302       -2.324789        1.629528
 O         3.504006       -0.953348        1.835206
 O         2.430724       -0.424934        1.602355
5
 generated by VMD
 N        -0.004267       -4.059842       -1.119492
 O        -0.804797       -3.654817       -1.694777
 O         3.520617       -2.324489        1.609867
 O         3.480976       -0.917521        1.815702
 O         2.416165       -0.401356        1.591497
5
 generated by VMD
 N        -0.000074       -4.003496       -1.103420
 O        -0.802728       -3.619726       -1.673580
 O         3.508376       -2.321720        1.588870
 O         3.458361       -0.881829        1.795960
 O         2.396076       -0.376180        1.580335
5
 generated by VMD
 N         0.013776       -3.951491       -1.083009
 O        -0.806304       -3.581028       -1.659562
 O         3.495243       -2.317522        1.569486
 O         3.440029       -0.851291        1.776707
 O         2.373238       -0.350569        1.572116
5
 generated by VMD
 N         0.032598       -3.898910       -1.058262
 O        -0.813813       -3.537444       -1.647974
 O         3.480667       -2.309783        1.549582
 O         3.420716       -0.823340        1.757816
 O         2.352036       -0.322169        1.564847
5
 generated by VMD
 N         0.054208       -3.847884       -1.032616
 O        -0.824073       -3.491075       -1.636604
 O         3.466988       -2.298027        1.527922
 O         3.403680       -0.796066        1.735858
 O         2.327844       -0.294382        1.559403
5
 generated by VMD
 N         0.075041       -3.798166       -1.007538
 O        -0.832810       -3.441102       -1.625164
 O         3.450670       -2.287852        1.507999
 O         3.387901       -0.768042        1.711029
 O         2.302130       -0.269256        1.555688
5
 generated by VMD
 N         0.095891       -3.745394       -0.984947
 O        -0.842568       -3.390267       -1.612367
 O         3.433119       -2.273724        1.487170
 O         3.370121       -0.742873        1.687492
 O         2.272049       -0.244517        1.552094
5
 generated by VMD
 N         0.114982       -3.690707       -0.961421
 O        -0.847712       -3.339793       -1.600307
 O         3.416302       -2.255789        1.466042
 O         3.351084       -0.719017        1.665053
 O         2.238624       -0.223372        1.546951
5
 generated by VMD
 N         0.131917       -3.632541       -0.939941
 O        -0.852687       -3.288762       -1.584707
 O         3.396420       -2.235622        1.441394
 O         3.330522       -0.695716        1.640989
 O         2.207694       -0.201320        1.538943
5
 generated by VMD
 N         0.145968       -3.569467       -0.919262
 O        -0.853970       -3.238063       -1.568289
 O         3.377771       -2.212387        1.417148
 O         3.310498       -0.671669        1.617293
 O         2.170527       -0.179257        1.532168
5
 generated by VMD
 N         0.154057       -3.507419       -0.904564
 O        -0.852043       -3.187936       -1.548406
 O         3.359178       -2.186061        1.392194
 O         3.289976       -0.647067        1.593669
 O         2.134954       -0.156553        1.523454
5
 generated by VMD
 N         0.157348       -3.446683       -0.892762
 O        -0.844336       -3.139840       -1.522032
 O         3.339603       -2.157475        1.368820
 O         3.270269       -0.630632        1.572131
 O         2.106497       -0.135657        1.515980
5
 generated by VMD
 N         0.155855       -3.381814       -0.884881
 O        -0.833027       -3.090178       -1.495673
 O         3.318242       -2.125070        1.345203
 O         3.248439       -0.613507        1.552907
 O         2.079553       -0.114103        1.504629
5
 generated by VMD
 N         0.148317       -3.318274       -0.881971
 O        -0.818914       -3.040242       -1.467499
 O         3.297176       -2.089798        1.323901
 O         3.227004       -0.596192        1.530677
 O         2.053928       -0.090717        1.492467
5
 generated by VMD
 N         0.137551       -3.255253       -0.879191
 O        -0.804422       -2.990739       -1.441518
 O         3.276279       -2.049299        1.301058
 O         3.203677       -0.579488        1.504629
 O         2.034555       -0.071536        1.481159
5
 generated by VMD
 N         0.125752       -3.194272       -0.878587
 O        -0.789033       -2.938838       -1.415400
 O         3.255766       -2.003845        1.277889
 O         3.176875       -0.564606        1.481981
 O         2.017625       -0.055564        1.472233
5
 generated by VMD
 N         0.118733       -3.134993       -0.871934
 O        -0.778223       -2.886381       -1.388156
 O         3.234246       -1.958157        1.253810
 O         3.150392       -0.548526        1.458493
 O         1.999937       -0.043148        1.465850
5
 generated by VMD
 N         0.121691       -3.081707       -0.861226
 O        -0.771350       -2.829768       -1.363966
 O         3.208784       -1.909784        1.230862
 O         3.125471       -0.535605        1.434561
 O         1.982387       -0.029629        1.460065
5
 generated by VMD
 N         0.131754       -3.032203       -0.846281
 O        -0.770221       -2.765576       -1.341256
 O         3.179081       -1.857934        1.207996
 O         3.098764       -0.524398        1.409447
 O         1.963984       -0.015306        1.455738
5
 generated by VMD
 N         0.151826       -2.984993       -0.824145
 O        -0.776383       -2.698511       -1.323403
 O         3.145618       -1.804128        1.185819
 O         3.069519       -0.517023        1.380257
 O         1.945063        0.001396        1.449593
5
 generated by VMD
 N         0.178237       -2.939109       -0.801209
 O        -0.785817       -2.632454       -1.306533
 O         3.109855       -1.744962        1.165377
 O         3.038546       -0.510218        1.350607
 O         1.926587        0.016283        1.443166
5
 generated by VMD
 N         0.205493       -2.895630       -0.775743
 O        -0.794925       -2.567602       -1.287410
 O         3.074516       -1.685878        1.144697
 O         3.010719       -0.501745        1.318486
 O         1.905661        0.031464        1.434581
5
 generated by VMD
 N         0.228336       -2.851972       -0.753006
 O        -0.803483       -2.500139       -1.267549
 O         3.037967       -1.629116        1.121234
 O         2.982656       -0.490571        1.284439
 O         1.881618        0.044542        1.427835
5
 generated by VMD
 N         0.245302       -2.809690       -0.731530
 O        -0.807257       -2.429826       -1.245655
 O         2.998223       -1.575971        1.096996
 O         2.953854       -0.479041        1.250981
 O         1.858788        0.057021        1.423586
5
 generated by VMD
 N         0.258996       -2.765609       -0.716195
 O        -0.803480       -2.360615       -1.219884
 O         2.957815       -1.532501        1.070369
 O         2.925848       -0.459594        1.215921
 O         1.833577        0.072506        1.420946
5
 generated by VMD
 N         0.266716       -2.717551       -0.699782
 O        -0.791727       -2.293612       -1.191655
 O         2.919897       -1.496100        1.041545
 O         2.900239       -0.427946        1.181782
 O         1.812671        0.088322        1.418917
5
 generated by VMD
 N         0.272620       -2.667198       -0.687468
 O        -0.774752       -2.227590       -1.161768
 O         2.882650       -1.471639        1.015753
 O         2.875521       -0.387098        1.148010
 O         1.790152        0.102811        1.415440
5
 generated by VMD
 N         0.274850       -2.614297       -0.676035
 O        -0.751826       -2.164017       -1.130429
 O         2.847087       -1.453174        0.989478
 O         2.851692       -0.339305        1.113370
 O         1.766769        0.119039        1.414517
5
 generated by VMD
 N         0.272154       -2.564127       -0.666063
 O        -0.725084       -2.100151       -1.097723
 O         2.815412       -1.440660        0.959908
 O         2.831686       -0.286034        1.080573
 O         1.741865        0.138595        1.416873
5
 generated by VMD
 N         0.265908       -2.512539       -0.654250
 O        -0.696022       -2.035915       -1.063387
 O         2.790068       -1.430136        0.931068
 O         2.812534       -0.227262        1.046289
 O         1.713767        0.161995        1.417063
5
 generated by VMD
 N         0.259292       -2.461950       -0.641376
 O        -0.666175       -1.972557       -1.027870
 O         2.762799       -1.419176        0.903633
 O         2.793916       -0.171005        1.013143
 O         1.685726        0.185905        1.420164
5
 generated by VMD
 N         0.252011       -2.415211       -0.626374
 O        -0.635789       -1.906600       -0.991451
 O         2.738047       -1.403581        0.874936
 O         2.777158       -0.114577        0.981426
 O         1.657368        0.209952        1.424504
5
 generated by VMD
 N         0.248571       -2.369011       -0.609301
 O        -0.609248       -1.839971       -0.956367
 O         2.711954       -1.389515        0.849491
 O         2.759002       -0.060488        0.952210
 O         1.626683        0.234111        1.430967
5
 generated by VMD
 N         0.250647       -2.324700       -0.588868
 O        -0.587027       -1.774206       -0.923058
 O         2.685060       -1.375610        0.822353
 O         2.740491       -0.009920        0.924488
 O         1.593485        0.261048        1.440896
5
 generated by VMD
 N         0.261584       -2.283796       -0.569222
 O        -0.569383       -1.704877       -0.892634
 O         2.659775       -1.363428        0.794758
 O         2.721847        0.038875        0.898908
 O         1.559795        0.291786        1.453809
5
 generated by VMD
 N         0.277418       -2.247082       -0.545916
 O        -0.555171       -1.632252       -0.862821
 O         2.635277       -1.349174        0.766388
 O         2.699178        0.086329        0.874894
 O         1.528321        0.325731        1.469658
5
 generated by VMD
 N         0.294532       -2.208275       -0.519659
 O        -0.544549       -1.554650       -0.838490
 O         2.613353       -1.332134        0.735160
 O         2.669936        0.133187        0.853113
 O         1.502317        0.360728        1.484390
5
 generated by VMD
 N         0.312076       -2.170871       -0.491074
 O        -0.535336       -1.473613       -0.813667
 O         2.592852       -1.313140        0.704341
 O         2.639524        0.178866        0.833143
 O         1.476171        0.394071        1.496489
5
 generated by VMD
 N         0.327534       -2.133659       -0.462792
 O        -0.527524       -1.392230       -0.783078
 O         2.568297       -1.291806        0.673445
 O         2.608972        0.219485        0.817494
 O         1.450191        0.430365        1.505771
5
 generated by VMD
 N         0.340304       -2.095448       -0.434535
 O        -0.518508       -1.311898       -0.751574
 O         2.545547       -1.266998        0.641231
 O         2.576551        0.257934        0.802878
 O         1.428386        0.468654        1.513982
5
 generated by VMD
 N         0.350264       -2.053553       -0.407024
 O        -0.506884       -1.235018       -0.720526
 O         2.521396       -1.242112        0.609318
 O         2.539709        0.297282        0.793428
 O         1.410362        0.505184        1.517957
5
 generated by VMD
 N         0.359598       -2.008169       -0.382767
 O        -0.490823       -1.161187       -0.688780
 O         2.502088       -1.214239        0.578890
 O         2.502044        0.333305        0.785845
 O         1.394852        0.542271        1.518630
5
 generated by VMD
 N         0.366388       -1.960763       -0.359924
 O        -0.473138       -1.089017       -0.655584
 O         2.482264       -1.186944        0.550302
 O         2.457787        0.368942        0.779665
 O         1.382387        0.581035        1.516019
5
 generated by VMD
 N         0.368961       -1.908429       -0.339079
 O        -0.449080       -1.023930       -0.621112
 O         2.462868       -1.158530        0.521924
 O         2.411132        0.403791        0.774318
 O         1.370664        0.621869        1.513084
5
 generated by VMD
 N         0.363613       -1.852700       -0.320968
 O        -0.422067       -0.962999       -0.585910
 O         2.443869       -1.127437        0.495885
 O         2.361045        0.437037        0.770825
 O         1.363550        0.665558        1.507967
5
 generated by VMD
 N         0.357513       -1.797733       -0.305245
 O        -0.393540       -0.904865       -0.547724
 O         2.421418       -1.096897        0.470079
 O         2.310337        0.472280        0.767916
 O         1.356964        0.710273        1.504384
5
 generated by VMD
 N         0.349709       -1.740228       -0.293065
 O        -0.364038       -0.849078       -0.508436
 O         2.397739       -1.065479        0.442191
 O         2.260372        0.508416        0.765787
 O         1.351235        0.751862        1.500342
5
 generated by VMD
 N         0.338797       -1.684576       -0.282306
 O        -0.332276       -0.797766       -0.469719
 O         2.373039       -1.033762        0.417151
 O         2.209608        0.543793        0.760627
 O         1.345043        0.792536        1.493296
5
 generated by VMD
 N         0.327848       -1.630804       -0.271304
 O        -0.296194       -0.745536       -0.432758
 O         2.350089       -1.002152        0.391784
 O         2.161132        0.575855        0.750686
 O         1.340163        0.833460        1.486915
5
 generated by VMD
 N         0.316773       -1.579164       -0.258566
 O        -0.263911       -0.693088       -0.393653
 O         2.326670       -0.972460        0.363477
 O         2.115734        0.607450        0.739479
 O         1.331027        0.876672        1.483617
5
 generated by VMD
 N         0.305872       -1.529432       -0.242387
 O        -0.233255       -0.639691       -0.354464
 O         2.305564       -0.945817        0.334187
 O         2.073109        0.635308        0.725551
 O         1.319036        0.921553        1.487577
5
 generated by VMD
 N         0.299480       -1.482803       -0.224749
 O        -0.206977       -0.583546       -0.315484
 O         2.287444       -0.918227        0.302659
 O         2.030535        0.660154        0.706212
 O         1.306484        0.965454        1.494597
5
 generated by VMD
 N         0.300695       -1.445516       -0.204945
 O        -0.183895       -0.521768       -0.276505
 O         2.270714       -0.891128        0.270505
 O         1.991045        0.686050        0.682737
 O         1.290381        1.010707        1.506342
5
 generated by VMD
 N         0.306381       -1.414326       -0.183969
 O        -0.164372       -0.453270       -0.240676
 O         2.253577       -0.867353        0.237774
 O         1.955386        0.712302        0.656294
 O         1.271241        1.056019        1.519466
5
 generated by VMD
 N         0.311423       -1.387518       -0.163006
 O        -0.145725       -0.386850       -0.207569
 O         2.234629       -0.843094        0.205173
 O         1.923916        0.737893        0.628491
 O         1.249426        1.101856        1.536342
5
 generated by VMD
 N         0.318076       -1.361266       -0.140590
 O        -0.126639       -0.321016       -0.172420
 O         2.217790       -0.819590        0.174415
 O         1.896234        0.764022        0.601399
 O         1.230160        1.145183        1.555577
5
 generated by VMD
 N         0.326457       -1.335228       -0.115856
 O        -0.108502       -0.258427       -0.136571
 O         2.198791       -0.796108        0.143475
 O         1.868501        0.793188        0.573353
 O         1.215097        1.186887        1.572612
5
 generated by VMD
 N         0.335035       -1.303121       -0.090147
 O        -0.088857       -0.199102       -0.098576
 O         2.178178       -0.773866        0.115719
 O         1.841140        0.821857        0.546417
 O         1.201588        1.229075        1.587407
5
 generated by VMD
 N         0.343054       -1.262436       -0.064809
 O        -0.067407       -0.145085       -0.064072
 O         2.156672       -0.750865        0.093314
 O         1.816235        0.850973        0.521029
 O         1.187725        1.270828        1.602533
5
 generated by VMD
 N         0.351153       -1.217321       -0.038476
 O        -0.049449       -0.096437       -0.031385
 O         2.132207       -0.726575        0.071651
 O         1.793812        0.882352        0.500021
 O         1.173165        1.307661        1.614577
5
 generated by VMD
 N         0.359944       -1.164147       -0.011544
 O        -0.035311       -0.054169        0.000388
 O         2.109661       -0.701956        0.049927
 O         1.773534        0.914243        0.481314
 O         1.162852        1.340641        1.629383
5
 generated by VMD
 N         0.370185       -1.106050        0.014159
 O        -0.021728       -0.017627        0.033983
 O         2.083643       -0.675902        0.029277
 O         1.752193        0.943781        0.464199
 O         1.157777        1.374343        1.638895
5
 generated by VMD
 N         0.380992       -1.045557        0.037888
 O        -0.010806        0.013553        0.069295
 O         2.056150       -0.650178        0.004558
 O         1.731757        0.974085        0.448409
 O         1.157008        1.406216        1.648426
5
 generated by VMD
 N         0.394237       -0.984321        0.060595
 O        -0.005593        0.042077        0.101934
 O         2.028423       -0.627804       -0.018807
 O         1.714232        1.005734        0.434458
 O         1.155540        1.436647        1.654814
5
 generated by VMD
 N         0.406663       -0.928423        0.084025
 O        -0.003480        0.069246        0.134082
 O         2.001781       -0.607827       -0.038653
 O         1.695675        1.037833        0.420666
 O         1.155573        1.463450        1.661372
5
 generated by VMD
 N         0.421064       -0.880113        0.106445
 O        -0.005584        0.100835        0.168470
 O         1.974316       -0.589054       -0.054582
 O         1.674752        1.073260        0.410164
 O         1.159188        1.488626        1.663861
5
 generated by VMD
 N         0.433165       -0.836842        0.127268
 O        -0.013656        0.133691        0.200767
 O         1.947643       -0.570999       -0.071043
 O         1.654703        1.109164        0.403204
 O         1.165349        1.510796        1.662356
5
 generated by VMD
 N         0.446763       -0.794556        0.145121
 O        -0.025676        0.169808        0.230133
 O         1.918337       -0.553356       -0.088822
 O         1.631046        1.146532        0.399034
 O         1.175506        1.530737        1.653719
5
 generated by VMD
 N         0.463448       -0.756951        0.159531
 O        -0.042572        0.206022        0.258030
 O         1.888974       -0.537203       -0.106054
 O         1.608193        1.186794        0.401607
 O         1.190107        1.547122        1.638758
5
 generated by VMD
 N         0.480973       -0.724981        0.172790
 O        -0.063659        0.247177        0.284454
 O         1.859349       -0.521044       -0.122052
 O         1.588027        1.227282        0.406887
 O         1.205551        1.561589        1.620236
5
 generated by VMD
 N         0.502483       -0.696332        0.182361
 O        -0.088475        0.288357        0.307627
 O         1.828498       -0.505551       -0.135836
 O         1.566026        1.268985        0.411660
 O         1.219258        1.574688        1.599303
5
 generated by VMD
 N         0.525459       -0.672567        0.195384
 O        -0.116708        0.327674        0.330408
 O         1.796814       -0.490224       -0.151731
 O         1.543408        1.312320        0.421569
 O         1.236029        1.588611        1.576424
5
 generated by VMD
 N         0.549962       -0.644052        0.209248
 O        -0.146155        0.361594        0.352804
 O         1.764378       -0.475434       -0.169722
 O         1.520729        1.355557        0.436308
 O         1.256511        1.604535        1.551391
5
 generated by VMD
 N         0.573840       -0.612345        0.224266
 O        -0.175171        0.396717        0.376197
 O         1.731772       -0.463136       -0.188776
 O         1.500746        1.400564        0.452090
 O         1.279472        1.619629        1.526980
5
 generated by VMD
 N         0.599686       -0.576706        0.236043
 O        -0.203888        0.427823        0.399817
 O         1.698340       -0.449596       -0.207435
 O         1.478037        1.446231        0.465650
 O         1.303980        1.637524        1.507685
5
 generated by VMD
 N         0.624258       -0.539665        0.247942
 O        -0.232229        0.455582        0.426051
 O         1.662338       -0.433676       -0.226195
 O         1.458455        1.492032        0.469754
 O         1.325159        1.652276        1.496619
5
 generated by VMD
 N         0.646767       -0.500736        0.256866
 O        -0.260208        0.480759        0.449146
 O         1.627630       -0.419962       -0.246425
 O         1.442102        1.540080        0.465541
 O         1.344277        1.666249        1.499138
5
 generated by VMD
 N         0.666944       -0.460649        0.268529
 O        -0.285833        0.501451        0.475123
 O         1.596151       -0.411123       -0.267707
 O         1.427392        1.590698        0.450731
 O         1.360956        1.680329        1.515246
5
 generated by VMD
 N         0.678221       -0.418308        0.283341
 O        -0.310484        0.518078        0.498325
 O         1.569627       -0.399980       -0.292585
 O         1.415426        1.641424        0.425612
 O         1.379299        1.695875        1.539750
5
 generated by VMD
 N         0.678261       -0.378367        0.303400
 O        -0.337967        0.531818        0.521862
 O         1.546993       -0.388468       -0.322213
 O         1.402280        1.692532        0.396042
 O         1.397776        1.712078        1.566051
5
 generated by VMD
 N         0.668568       -0.337074        0.327773
 O        -0.365140        0.543143        0.545984
 O         1.529914       -0.379012       -0.352434
 O         1.389140        1.745680        0.363916
 O         1.414465        1.733578        1.593924
5
 generated by VMD
 N         0.653089       -0.293338        0.359284
 O        -0.388634        0.556267        0.569903
 O         1.518809       -0.370041       -0.382413
 O         1.377488        1.797795        0.334968
 O         1.434403        1.756587        1.620829
5
 generated by VMD
 N         0.634802       -0.253157        0.395962
 O        -0.410153        0.566691        0.589430
 O         1.504461       -0.360040       -0.411671
 O         1.367546        1.851089        0.311322
 O         1.454431        1.784589        1.644651
5
 generated by VMD
 N         0.611164       -0.209167        0.429229
 O        -0.431493        0.575559        0.607188
 O         1.488250       -0.351977       -0.442900
 O         1.355200        1.905236        0.294211
 O         1.473260        1.812147        1.665950
5
 generated by VMD
 N         0.587746       -0.162987        0.464365
 O        -0.454662        0.581876        0.621272
 O         1.471354       -0.345353       -0.469917
 O         1.343176        1.957512        0.281926
 O         1.491093        1.837648        1.679760
5
 generated by VMD
 N         0.564112       -0.119645        0.497427
 O        -0.474896        0.584557        0.634759
 O         1.449698       -0.335172       -0.490264
 O         1.334530        2.010171        0.275302
 O         1.509257        1.866065        1.688750
5
 generated by VMD
 N         0.544187       -0.076723        0.528353
 O        -0.493134        0.583202        0.646051
 O         1.422893       -0.323902       -0.507244
 O         1.328874        2.061583        0.279413
 O         1.523220        1.895506        1.689405
5
 generated by VMD
 N         0.520380       -0.037820        0.555828
 O        -0.508355        0.576276        0.653095
 O         1.389818       -0.310550       -0.521895
 O         1.327474        2.112467        0.289979
 O         1.537145        1.921871        1.685679
5
 generated by VMD
 N         0.495323       -0.000129        0.580221
 O        -0.522196        0.566044        0.661291
 O         1.353397       -0.295856       -0.532613
 O         1.327411        2.160841        0.303654
 O         1.548802        1.949678        1.675557
5
 generated by VMD
 N         0.471168        0.036257        0.603828
 O        -0.532046        0.556176        0.669895
 O         1.316416       -0.278084       -0.539916
 O         1.328495        2.214002        0.321162
 O         1.562125        1.975956        1.657729
5
 generated by VMD
 N         0.449362        0.071075        0.624595
 O        -0.541200        0.545482        0.679769
 O         1.275777       -0.260725       -0.545569
 O         1.328539        2.268415        0.345737
 O         1.574728        2.002523        1.635756
5
 generated by VMD
 N         0.433829        0.102361        0.642763
 O        -0.552941        0.537067        0.688513
 O         1.234469       -0.243669       -0.550518
 O         1.332545        2.324663        0.376101
 O         1.587582        2.030512        1.610303
5
 generated by VMD
 N         0.424665        0.128440        0.656405
 O        -0.571985        0.530765        0.696371
 O         1.192294       -0.221215       -0.555552
 O         1.337435        2.379624        0.411320
 O         1.597087        2.059486        1.580308
5
 generated by VMD
 N         0.423727        0.150101        0.662926
 O        -0.597221        0.524465        0.702220
 O         1.147248       -0.198815       -0.558739
 O         1.344160        2.434780        0.447585
 O         1.604215        2.088288        1.549376
5
 generated by VMD
 N         0.430715        0.165430        0.667688
 O        -0.627599        0.518366        0.709409
 O         1.101554       -0.174796       -0.558680
 O         1.350923        2.490433        0.481738
 O         1.611050        2.118223        1.520630
5
 generated by VMD
 N         0.440885        0.180702        0.668526
 O        -0.661277        0.509080        0.718244
 O         1.054436       -0.150347       -0.560343
 O         1.357525        2.548423        0.509473
 O         1.618844        2.143188        1.495860
5
 generated by VMD
 N         0.450449        0.196032        0.669204
 O        -0.695099        0.499682        0.728436
 O         1.006764       -0.123202       -0.557245
 O         1.363793        2.608535        0.532607
 O         1.626933        2.166111        1.474174
5
 generated by VMD
 N         0.458183        0.207697        0.665784
 O        -0.727444        0.489191        0.742791
 O         0.958125       -0.097992       -0.552089
 O         1.366622        2.671616        0.547787
 O         1.635437        2.184888        1.462771
5
 generated by VMD
 N         0.465589        0.219252        0.656668
 O        -0.758592        0.480073        0.759658
 O         0.907735       -0.070077       -0.539223
 O         1.363991        2.737768        0.555679
 O         1.644814        2.197513        1.460037
5
 generated by VMD
 N         0.468220        0.229186        0.642339
 O        -0.787767        0.466563        0.777932
 O         0.856355       -0.039963       -0.522117
 O         1.359237        2.806212        0.558450
 O         1.656471        2.205359        1.462103
5
 generated by VMD
 N         0.469023        0.238908        0.625432
 O        -0.811745        0.451888        0.797380
 O         0.804534       -0.008530       -0.502087
 O         1.353986        2.874270        0.554541
 O         1.666865        2.212307        1.467717
