3
 generated by VMD
 O        -1.977505        1.128161        5.559428
 N        -2.441162        4.052316        2.993870
 N        -2.939954        4.725875        2.263487
3
 generated by VMD
 O        -1.967193        1.121601        5.528744
 N        -2.428337        4.028092        2.980365
 N        -2.916650        4.690349        2.256291
3
 generated by VMD
 O        -1.948065        1.107186        5.463413
 N        -2.401760        3.985198        2.945206
 N        -2.875581        4.631710        2.235077
3
 generated by VMD
 O        -1.916520        1.087264        5.364390
 N        -2.361301        3.922554        2.893264
 N        -2.821680        4.544351        2.196945
3
 generated by VMD
 O        -1.875415        1.063990        5.236283
 N        -2.301071        3.840562        2.832815
 N        -2.757435        4.431072        2.140186
3
 generated by VMD
 O        -1.828257        1.035593        5.082270
 N        -2.227103        3.723843        2.760335
 N        -2.682433        4.297250        2.065941
3
 generated by VMD
 O        -1.771857        0.998727        4.898311
 N        -2.135219        3.582017        2.679141
 N        -2.601952        4.143260        1.973145
3
 generated by VMD
 O        -1.704224        0.955936        4.689774
 N        -2.030954        3.412845        2.593416
 N        -2.507284        3.974913        1.864695
3
 generated by VMD
 O        -1.626269        0.912193        4.457609
 N        -1.911973        3.225004        2.499840
 N        -2.400188        3.784553        1.743688
3
 generated by VMD
 O        -1.541020        0.870183        4.201898
 N        -1.780712        3.024332        2.400573
 N        -2.280818        3.575650        1.611553
3
 generated by VMD
 O        -1.450843        0.829467        3.927390
 N        -1.643827        2.811699        2.291698
 N        -2.151994        3.351110        1.474775
3
 generated by VMD
 O        -1.352199        0.782854        3.638062
 N        -1.500134        2.589105        2.173530
 N        -2.019306        3.109612        1.338377
3
 generated by VMD
 O        -1.253046        0.731635        3.333995
 N        -1.353157        2.356252        2.048635
 N        -1.879136        2.852026        1.195180
3
 generated by VMD
 O        -1.149363        0.675800        3.022547
 N        -1.204899        2.118768        1.912851
 N        -1.734575        2.584572        1.048389
3
 generated by VMD
 O        -1.042525        0.618669        2.701817
 N        -1.058459        1.875781        1.769346
 N        -1.587986        2.309423        0.898046
3
 generated by VMD
 O        -0.931916        0.558851        2.376748
 N        -0.903709        1.634215        1.625623
 N        -1.438532        2.027755        0.739484
3
 generated by VMD
 O        -0.820749        0.496480        2.048705
 N        -0.744900        1.390215        1.487740
 N        -1.288752        1.744967        0.580269
3
 generated by VMD
 O        -0.713631        0.424118        1.729572
 N        -0.578930        1.157725        1.355334
 N        -1.143379        1.468599        0.415557
3
 generated by VMD
 O        -0.615627        0.287033        1.446693
 N        -0.399760        0.994815        1.195165
 N        -1.004539        1.202962        0.244669
3
 generated by VMD
 O        -0.541082        0.054946        1.207069
 N        -0.187983        0.934271        1.001298
 N        -0.874232        0.945924        0.058863
3
 generated by VMD
 O        -0.477894       -0.203644        0.982813
 N         0.034963        0.899411        0.809932
 N        -0.750827        0.699883       -0.142083
3
 generated by VMD
 O        -0.420168       -0.463398        0.757812
 N         0.264217        0.864962        0.625484
 N        -0.631002        0.450212       -0.343855
3
 generated by VMD
 O        -0.365043       -0.717446        0.529461
 N         0.497310        0.830267        0.439735
 N        -0.513384        0.202663       -0.543797
3
 generated by VMD
 O        -0.310078       -0.964465        0.300961
 N         0.725075        0.793634        0.254389
 N        -0.399122       -0.042651       -0.737541
3
 generated by VMD
 O        -0.257617       -1.205975        0.073987
 N         0.948977        0.757126        0.068756
 N        -0.286102       -0.287776       -0.922512
3
 generated by VMD
 O        -0.210305       -1.443083       -0.161797
 N         1.172721        0.726647       -0.116880
 N        -0.170127       -0.538763       -1.103121
3
 generated by VMD
 O        -0.161510       -1.671114       -0.400935
 N         1.396188        0.692450       -0.299919
 N        -0.054203       -0.790273       -1.276959
3
 generated by VMD
 O        -0.113464       -1.894248       -0.646018
 N         1.617985        0.654658       -0.479712
 N         0.062644       -1.042917       -1.439676
3
 generated by VMD
 O        -0.062444       -2.111518       -0.890247
 N         1.836107        0.616645       -0.657840
 N         0.173229       -1.295632       -1.605792
3
 generated by VMD
 O        -0.007700       -2.329926       -1.128508
 N         2.048688        0.585133       -0.832829
 N         0.285361       -1.545296       -1.774339
3
 generated by VMD
 O         0.043490       -2.552052       -1.358758
 N         2.255473        0.555845       -1.004717
 N         0.398739       -1.786652       -1.947870
3
 generated by VMD
 O         0.088890       -2.772563       -1.577662
 N         2.459142        0.526113       -1.173406
 N         0.517197       -2.012221       -2.129728
3
 generated by VMD
 O         0.129350       -2.990269       -1.784916
 N         2.651365        0.494380       -1.339154
 N         0.645259       -2.223767       -2.306213
3
 generated by VMD
 O         0.165761       -3.197058       -1.980898
 N         2.834631        0.461871       -1.499355
 N         0.774984       -2.418395       -2.479089
3
 generated by VMD
 O         0.196332       -3.391564       -2.170104
 N         3.009961        0.424644       -1.655356
 N         0.904357       -2.597310       -2.646454
3
 generated by VMD
 O         0.227330       -3.570731       -2.348267
 N         3.173209        0.384194       -1.804806
 N         1.024206       -2.768949       -2.799136
