4
 generated by VMD
 O        -0.460346       -1.119288        2.695060
 O        -1.751567        2.392733        1.125910
 H        -1.890749        1.939581        0.277415
 H        -1.447431        1.601778        1.450693
4
 generated by VMD
 O        -0.475988       -1.105880        2.707467
 O        -1.778150        2.379987        1.146497
 H        -1.913108        1.943695        0.269045
 H        -1.399878        1.595114        1.384064
4
 generated by VMD
 O        -0.489570       -1.090941        2.716737
 O        -1.809456        2.368127        1.166179
 H        -1.942361        1.959260        0.251213
 H        -1.325706        1.561777        1.348069
4
 generated by VMD
 O        -0.501531       -1.079087        2.722769
 O        -1.839548        2.355426        1.185490
 H        -1.977861        1.982463        0.251241
 H        -1.250613        1.536359        1.325741
4
 generated by VMD
 O        -0.515342       -1.067680        2.724831
 O        -1.869971        2.339900        1.203464
 H        -2.012250        2.022308        0.286185
 H        -1.181911        1.523578        1.314049
4
 generated by VMD
 O        -0.528168       -1.054056        2.726786
 O        -1.897886        2.324495        1.220161
 H        -2.040611        2.084836        0.330336
 H        -1.135484        1.537666        1.307804
4
 generated by VMD
 O        -0.540132       -1.037941        2.728480
 O        -1.923293        2.304371        1.235545
 H        -2.074422        2.152917        0.348481
 H        -1.111957        1.592276        1.310576
4
 generated by VMD
 O        -0.548449       -1.021950        2.730408
 O        -1.944912        2.281720        1.248142
 H        -2.116515        2.223338        0.337205
 H        -1.121890        1.676643        1.321838
4
 generated by VMD
 O        -0.556745       -1.007356        2.730310
 O        -1.962411        2.260741        1.260096
 H        -2.150174        2.283811        0.321623
 H        -1.147163        1.771687        1.330341
4
 generated by VMD
 O        -0.567301       -0.992173        2.730720
 O        -1.979409        2.241574        1.270746
 H        -2.185276        2.354418        0.303531
 H        -1.176445        1.867229        1.336035
4
 generated by VMD
 O        -0.580838       -0.977817        2.729634
 O        -1.999638        2.227654        1.283610
 H        -2.226442        2.414202        0.308547
 H        -1.171534        1.959747        1.351161
4
 generated by VMD
 O        -0.594325       -0.964847        2.727477
 O        -2.020463        2.214678        1.295054
 H        -2.257346        2.456028        0.337373
 H        -1.101477        2.038284        1.349601
4
 generated by VMD
 O        -0.607305       -0.952211        2.724110
 O        -2.042800        2.201230        1.305048
 H        -2.280900        2.479525        0.384173
 H        -1.004616        2.103386        1.347825
4
 generated by VMD
 O        -0.615947       -0.938608        2.722856
 O        -2.064346        2.193451        1.314858
 H        -2.294422        2.502932        0.449457
 H        -0.941582        2.164635        1.343429
4
 generated by VMD
 O        -0.624336       -0.926177        2.718372
 O        -2.083197        2.185778        1.321856
 H        -2.300574        2.529011        0.504269
 H        -0.934373        2.236738        1.338222
4
 generated by VMD
 O        -0.632026       -0.913855        2.714382
 O        -2.098423        2.178316        1.331077
 H        -2.320798        2.567453        0.525943
 H        -0.971624        2.305322        1.328296
4
 generated by VMD
 O        -0.635934       -0.897623        2.710245
 O        -2.112464        2.168868        1.340521
 H        -2.345357        2.629965        0.512511
 H        -1.043183        2.361573        1.324171
4
 generated by VMD
 O        -0.638474       -0.883191        2.707809
 O        -2.121033        2.162216        1.350984
 H        -2.369589        2.697425        0.501481
 H        -1.157820        2.401562        1.328926
4
 generated by VMD
 O        -0.637251       -0.869354        2.704934
 O        -2.130821        2.157829        1.361349
 H        -2.388197        2.750387        0.523256
 H        -1.292272        2.435742        1.334467
4
 generated by VMD
 O        -0.636593       -0.857414        2.700990
 O        -2.143878        2.152889        1.369117
 H        -2.401684        2.785855        0.573405
 H        -1.370215        2.472737        1.346584
4
 generated by VMD
 O        -0.635761       -0.845134        2.697664
 O        -2.164092        2.148327        1.376121
 H        -2.415048        2.799700        0.658287
 H        -1.351058        2.552157        1.385431
4
 generated by VMD
 O        -0.631886       -0.832991        2.690185
 O        -2.184484        2.144423        1.378943
 H        -2.442841        2.793236        0.745728
 H        -1.295016        2.632158        1.437290
4
 generated by VMD
 O        -0.625793       -0.823494        2.683309
 O        -2.201081        2.140083        1.378334
 H        -2.483099        2.792579        0.821842
 H        -1.233899        2.700285        1.491963
4
 generated by VMD
 O        -0.621175       -0.813864        2.674114
 O        -2.214972        2.134653        1.379360
 H        -2.550891        2.810221        0.882025
 H        -1.202029        2.740646        1.546606
4
 generated by VMD
 O        -0.619439       -0.802383        2.663697
 O        -2.221484        2.131142        1.379899
 H        -2.628599        2.848090        0.913928
 H        -1.197195        2.755079        1.589782
4
 generated by VMD
 O        -0.622528       -0.795503        2.652606
 O        -2.225913        2.126594        1.379595
 H        -2.694155        2.899652        0.944536
 H        -1.243490        2.740916        1.612679
4
 generated by VMD
 O        -0.623961       -0.788709        2.640448
 O        -2.226034        2.124600        1.380786
 H        -2.758318        2.925194        0.983851
 H        -1.327468        2.691923        1.627165
4
 generated by VMD
 O        -0.627887       -0.781980        2.627664
 O        -2.223262        2.126499        1.384987
 H        -2.814703        2.929068        1.020568
 H        -1.437330        2.617607        1.636544
4
 generated by VMD
 O        -0.631588       -0.776115        2.615834
 O        -2.222470        2.129635        1.388440
 H        -2.853405        2.906859        1.066001
 H        -1.537997        2.532334        1.643471
4
 generated by VMD
 O        -0.636500       -0.772489        2.603161
 O        -2.231984        2.130128        1.385631
 H        -2.887133        2.866921        1.132033
 H        -1.551832        2.489209        1.670411
4
 generated by VMD
 O        -0.639880       -0.768960        2.589607
 O        -2.247528        2.126491        1.379523
 H        -2.890947        2.821696        1.208972
 H        -1.462010        2.508051        1.730691
4
 generated by VMD
 O        -0.641717       -0.769166        2.577170
 O        -2.263649        2.123557        1.371014
 H        -2.893765        2.786688        1.273603
 H        -1.375208        2.545241        1.785163
4
 generated by VMD
 O        -0.644135       -0.765758        2.564756
 O        -2.276095        2.118481        1.367490
 H        -2.906465        2.774272        1.326873
 H        -1.312682        2.563671        1.823762
4
 generated by VMD
 O        -0.645062       -0.762421        2.550381
 O        -2.282861        2.114189        1.364959
 H        -2.936035        2.777920        1.384300
 H        -1.290751        2.563984        1.848284
4
 generated by VMD
 O        -0.645096       -0.758136        2.533636
 O        -2.283417        2.108639        1.363979
 H        -2.965279        2.789475        1.440836
 H        -1.309889        2.536102        1.856561
4
 generated by VMD
 O        -0.644482       -0.753332        2.515570
 O        -2.278578        2.100647        1.361042
 H        -3.005563        2.805115        1.498536
 H        -1.377625        2.493473        1.855977
4
 generated by VMD
 O        -0.643631       -0.748160        2.500052
 O        -2.271956        2.091445        1.358702
 H        -3.016522        2.806871        1.555177
 H        -1.477932        2.437108        1.831427
4
 generated by VMD
 O        -0.640569       -0.741289        2.486686
 O        -2.266910        2.081877        1.356778
 H        -3.004167        2.779566        1.602683
 H        -1.578694        2.392980        1.801002
4
 generated by VMD
 O        -0.635303       -0.736300        2.470413
 O        -2.265935        2.069883        1.354902
 H        -2.953752        2.737324        1.627846
 H        -1.641212        2.361597        1.797955
4
 generated by VMD
 O        -0.629685       -0.727625        2.454285
 O        -2.268903        2.055329        1.349526
 H        -2.889037        2.670497        1.651640
 H        -1.609035        2.371875        1.863996
4
 generated by VMD
 O        -0.625765       -0.719233        2.437752
 O        -2.270591        2.038478        1.345089
 H        -2.842549        2.616450        1.669494
 H        -1.540702        2.395875        1.952271
4
 generated by VMD
 O        -0.621849       -0.705531        2.419143
 O        -2.268902        2.022862        1.341950
 H        -2.841451        2.607110        1.684688
 H        -1.495019        2.397638        2.023877
4
 generated by VMD
 O        -0.618355       -0.691376        2.396099
 O        -2.262665        2.008465        1.340592
 H        -2.886248        2.625962        1.714110
 H        -1.468610        2.368145        2.061502
4
 generated by VMD
 O        -0.614203       -0.674789        2.375886
 O        -2.258476        1.992927        1.341957
 H        -2.937871        2.639673        1.750208
 H        -1.462698        2.329357        2.067692
4
 generated by VMD
 O        -0.608745       -0.659102        2.358049
 O        -2.254524        1.980460        1.350089
 H        -2.992473        2.631049        1.776499
 H        -1.481331        2.263633        2.044172
4
 generated by VMD
 O        -0.601726       -0.644506        2.339862
 O        -2.250844        1.966312        1.362431
 H        -3.027020        2.602901        1.790383
 H        -1.518553        2.175280        1.996524
4
 generated by VMD
 O        -0.593219       -0.629831        2.320027
 O        -2.246499        1.951961        1.377971
 H        -3.037053        2.537163        1.789000
 H        -1.550469        2.072257        1.944481
4
 generated by VMD
 O        -0.583123       -0.615644        2.299909
 O        -2.245795        1.937248        1.393070
 H        -3.011066        2.441327        1.768192
 H        -1.558576        1.963372        1.921978
4
 generated by VMD
 O        -0.570327       -0.604874        2.282483
 O        -2.250812        1.921854        1.405189
 H        -2.963323        2.331926        1.747333
 H        -1.512722        1.852467        1.925773
4
 generated by VMD
 O        -0.553830       -0.595031        2.260993
 O        -2.253802        1.904427        1.412934
 H        -2.951047        2.246718        1.750184
 H        -1.453352        1.744245        1.955470
4
 generated by VMD
 O        -0.534657       -0.584486        2.241602
 O        -2.251346        1.885415        1.417431
 H        -3.001630        2.190164        1.785359
 H        -1.416128        1.641444        1.982085
4
 generated by VMD
 O        -0.517549       -0.576648        2.222924
 O        -2.244250        1.864002        1.421122
 H        -3.088737        2.153729        1.846517
 H        -1.404047        1.544454        2.009044
4
 generated by VMD
 O        -0.499627       -0.570057        2.203031
 O        -2.234625        1.839694        1.426341
 H        -3.156844        2.115374        1.918698
 H        -1.437665        1.459659        2.017624
4
 generated by VMD
 O        -0.479192       -0.566932        2.184881
 O        -2.223124        1.814054        1.432392
 H        -3.182711        2.054277        1.983063
 H        -1.503788        1.404180        2.023829
4
 generated by VMD
 O        -0.459764       -0.566371        2.167634
 O        -2.212619        1.791135        1.438822
 H        -3.159422        1.981976        2.016399
 H        -1.583648        1.356071        2.020257
4
 generated by VMD
 O        -0.439927       -0.569588        2.149582
 O        -2.203036        1.769829        1.445378
 H        -3.103251        1.893584        2.017560
 H        -1.655397        1.309892        2.028405
4
 generated by VMD
 O        -0.421272       -0.570205        2.132559
 O        -2.192310        1.750087        1.449817
 H        -3.019066        1.809925        1.979826
 H        -1.696009        1.261327        2.050960
4
 generated by VMD
 O        -0.400450       -0.570881        2.114140
 O        -2.181437        1.731091        1.454226
 H        -2.920951        1.738141        1.927493
 H        -1.727366        1.196745        2.093654
4
 generated by VMD
 O        -0.380427       -0.569899        2.096340
 O        -2.168428        1.711472        1.459234
 H        -2.874528        1.666452        1.899078
 H        -1.739112        1.134782        2.142199
4
 generated by VMD
 O        -0.360135       -0.569159        2.080631
 O        -2.146403        1.695173        1.463562
 H        -2.926767        1.604133        1.911247
 H        -1.729309        1.083098        2.174117
4
 generated by VMD
 O        -0.341863       -0.569519        2.065790
 O        -2.123270        1.679405        1.468143
 H        -3.000882        1.547292        1.926146
 H        -1.708955        1.055173        2.178591
4
 generated by VMD
 O        -0.327371       -0.569766        2.051033
 O        -2.100012        1.660393        1.474261
 H        -3.077377        1.500089        1.935457
 H        -1.684024        1.039169        2.164632
4
 generated by VMD
 O        -0.313967       -0.569095        2.034707
 O        -2.080134        1.643313        1.483974
 H        -3.132081        1.454053        1.925744
 H        -1.658881        1.039477        2.133385
4
 generated by VMD
 O        -0.299775       -0.567533        2.017729
 O        -2.061626        1.624610        1.496251
 H        -3.152494        1.418773        1.884904
 H        -1.628858        1.036995        2.093618
4
 generated by VMD
 O        -0.284964       -0.564849        2.002552
 O        -2.044610        1.604531        1.507725
 H        -3.133140        1.392596        1.836593
 H        -1.581197        1.039762        2.077363
4
 generated by VMD
 O        -0.268484       -0.561168        1.987573
 O        -2.028785        1.587331        1.517140
 H        -3.061789        1.367314        1.769117
 H        -1.526318        1.036350        2.059822
4
 generated by VMD
 O        -0.254194       -0.557891        1.973443
 O        -2.017466        1.572480        1.527241
 H        -2.952127        1.350190        1.705558
 H        -1.469255        1.004277        2.061398
4
 generated by VMD
 O        -0.243222       -0.556027        1.960135
 O        -2.004178        1.558203        1.536571
 H        -2.841340        1.335298        1.639907
 H        -1.415482        0.963477        2.080563
4
 generated by VMD
 O        -0.232717       -0.552177        1.945625
 O        -1.986197        1.545146        1.546378
 H        -2.790622        1.306439        1.586277
 H        -1.370997        0.945951        2.087190
4
 generated by VMD
 O        -0.223418       -0.549575        1.934818
 O        -1.961652        1.531780        1.554895
 H        -2.830501        1.250426        1.526424
 H        -1.332662        0.944153        2.087529
4
 generated by VMD
 O        -0.216517       -0.546796        1.923725
 O        -1.931406        1.518407        1.563462
 H        -2.889069        1.186867        1.466342
 H        -1.309991        0.940389        2.069434
4
 generated by VMD
 O        -0.210484       -0.546814        1.910746
 O        -1.904550        1.505043        1.572689
 H        -2.908186        1.124563        1.424710
 H        -1.297562        0.932552        2.047754
4
 generated by VMD
 O        -0.204184       -0.546634        1.895958
 O        -1.878164        1.495141        1.582138
 H        -2.878484        1.068702        1.404751
 H        -1.281826        0.915741        2.023306
4
 generated by VMD
 O        -0.199817       -0.545982        1.881446
 O        -1.856231        1.483706        1.590672
 H        -2.811343        1.030848        1.395097
 H        -1.269858        0.894324        2.007364
4
 generated by VMD
 O        -0.193546       -0.543245        1.867633
 O        -1.837726        1.471254        1.597516
 H        -2.712162        0.997366        1.395299
 H        -1.253282        0.841388        2.011690
4
 generated by VMD
 O        -0.189008       -0.538979        1.854422
 O        -1.819986        1.458352        1.603954
 H        -2.599360        0.978883        1.393738
 H        -1.226281        0.803422        2.017748
4
 generated by VMD
 O        -0.183832       -0.535118        1.844995
 O        -1.803063        1.448914        1.610074
 H        -2.494051        0.952818        1.391092
 H        -1.209001        0.767628        2.020566
4
 generated by VMD
 O        -0.177142       -0.533105        1.837645
 O        -1.785668        1.442079        1.616470
 H        -2.440874        0.892286        1.378405
 H        -1.191499        0.743197        2.029417
4
 generated by VMD
 O        -0.169409       -0.529596        1.832291
 O        -1.768973        1.435335        1.623033
 H        -2.409318        0.804782        1.360991
 H        -1.192490        0.719399        2.037009
4
 generated by VMD
 O        -0.163686       -0.529100        1.827405
 O        -1.747411        1.426981        1.631207
 H        -2.390093        0.711180        1.333644
 H        -1.205250        0.708084        2.047849
4
 generated by VMD
 O        -0.157641       -0.529697        1.824971
 O        -1.725682        1.414940        1.638873
 H        -2.382033        0.643173        1.300989
 H        -1.210309        0.719406        2.075294
4
 generated by VMD
 O        -0.151210       -0.533500        1.824275
 O        -1.703633        1.400250        1.645367
 H        -2.356230        0.609553        1.276935
 H        -1.193406        0.737624        2.113298
4
 generated by VMD
 O        -0.145602       -0.533512        1.820731
 O        -1.686823        1.383135        1.649713
 H        -2.322931        0.611255        1.265322
 H        -1.169068        0.778378        2.164105
4
 generated by VMD
 O        -0.139800       -0.532426        1.813654
 O        -1.670760        1.363072        1.655368
 H        -2.267666        0.661792        1.257059
 H        -1.127161        0.832415        2.230919
4
 generated by VMD
 O        -0.133539       -0.533063        1.805139
 O        -1.657315        1.342452        1.659679
 H        -2.215399        0.729799        1.236372
 H        -1.076870        0.884388        2.307328
4
 generated by VMD
 O        -0.127140       -0.536550        1.798686
 O        -1.642715        1.320132        1.665838
 H        -2.181979        0.769064        1.222547
 H        -1.031147        0.941853        2.391456
4
 generated by VMD
 O        -0.122409       -0.538672        1.791580
 O        -1.625338        1.300973        1.670789
 H        -2.182717        0.765092        1.181446
 H        -1.008485        1.011802        2.448549
4
 generated by VMD
 O        -0.119179       -0.539672        1.782016
 O        -1.606939        1.279922        1.674793
 H        -2.200363        0.743584        1.141563
 H        -1.006422        1.078311        2.487487
4
 generated by VMD
 O        -0.117067       -0.541283        1.771322
 O        -1.587490        1.256822        1.680184
 H        -2.215687        0.717867        1.123600
 H        -1.023952        1.141809        2.494380
4
 generated by VMD
 O        -0.114337       -0.539795        1.757960
 O        -1.570472        1.235478        1.683130
 H        -2.213799        0.682592        1.111484
 H        -1.055570        1.177006        2.479699
4
 generated by VMD
 O        -0.112552       -0.538712        1.744597
 O        -1.556060        1.211837        1.684563
 H        -2.179380        0.656781        1.123954
 H        -1.093185        1.203640        2.460063
4
 generated by VMD
 O        -0.108368       -0.539043        1.730014
 O        -1.541415        1.192468        1.683649
 H        -2.122158        0.635541        1.159842
 H        -1.133764        1.218108        2.465358
4
 generated by VMD
 O        -0.104224       -0.537346        1.716844
 O        -1.525064        1.175546        1.680909
 H        -2.068413        0.611955        1.216320
 H        -1.148496        1.240015        2.509240
4
 generated by VMD
 O        -0.099949       -0.535514        1.706976
 O        -1.507401        1.163820        1.677754
 H        -2.034551        0.569638        1.289337
 H        -1.170634        1.257117        2.579159
4
 generated by VMD
 O        -0.094127       -0.533337        1.696321
 O        -1.484977        1.154443        1.680796
 H        -2.033529        0.482690        1.368726
 H        -1.208437        1.252441        2.633447
4
 generated by VMD
 O        -0.088525       -0.530524        1.684730
 O        -1.460943        1.147575        1.684882
 H        -2.053396        0.370405        1.452973
 H        -1.253871        1.233769        2.674573
4
 generated by VMD
 O        -0.081644       -0.526589        1.673368
 O        -1.438312        1.140791        1.687658
 H        -2.053439        0.279684        1.545529
 H        -1.298898        1.215118        2.692311
4
 generated by VMD
 O        -0.075560       -0.526523        1.662055
 O        -1.415980        1.131486        1.691891
 H        -2.023506        0.225353        1.653410
 H        -1.349012        1.195318        2.688618
4
 generated by VMD
 O        -0.067892       -0.526791        1.650729
 O        -1.394158        1.120438        1.697225
 H        -1.971137        0.203510        1.742426
 H        -1.392995        1.180380        2.661842
4
 generated by VMD
 O        -0.058419       -0.524193        1.639737
 O        -1.372606        1.109448        1.705765
 H        -1.908756        0.214930        1.830382
 H        -1.422018        1.167106        2.652289
4
 generated by VMD
 O        -0.044614       -0.521592        1.630117
 O        -1.353308        1.096499        1.710453
 H        -1.829208        0.242486        1.907583
 H        -1.446073        1.162094        2.666045
4
 generated by VMD
 O        -0.030034       -0.517834        1.618025
 O        -1.333650        1.082328        1.718511
 H        -1.740793        0.274661        1.956484
 H        -1.458594        1.166634        2.692347
4
 generated by VMD
 O        -0.016696       -0.516582        1.606511
 O        -1.313241        1.068591        1.725173
 H        -1.668914        0.281195        1.998742
 H        -1.457299        1.179880        2.703379
4
 generated by VMD
 O        -0.003460       -0.516839        1.599274
 O        -1.291373        1.059364        1.730842
 H        -1.614801        0.223026        2.026800
 H        -1.446149        1.217929        2.720581
4
 generated by VMD
 O         0.012173       -0.517355        1.593568
 O        -1.272284        1.050824        1.736389
 H        -1.572063        0.134359        2.027903
 H        -1.432500        1.287523        2.731058
4
 generated by VMD
 O         0.029139       -0.519208        1.587388
 O        -1.254517        1.042145        1.746749
 H        -1.523484        0.051981        2.014557
 H        -1.393421        1.363429        2.725800
4
 generated by VMD
 O         0.048773       -0.521454        1.580373
 O        -1.237557        1.030049        1.760544
 H        -1.475499       -0.019161        1.978699
 H        -1.351072        1.437788        2.696658
4
 generated by VMD
 O         0.070114       -0.522869        1.572205
 O        -1.223680        1.018319        1.780658
 H        -1.423841       -0.054484        1.943739
 H        -1.303029        1.514236        2.654618
4
 generated by VMD
 O         0.086667       -0.523967        1.564462
 O        -1.209273        1.004607        1.800704
 H        -1.357628       -0.058972        1.907663
 H        -1.251547        1.565686        2.596454
4
 generated by VMD
 O         0.098831       -0.526672        1.560727
 O        -1.193148        0.991541        1.821881
 H        -1.300602       -0.033645        1.889604
 H        -1.207792        1.611446        2.541640
4
 generated by VMD
 O         0.112562       -0.526559        1.556831
 O        -1.176910        0.976594        1.843948
 H        -1.239274        0.016115        1.876534
 H        -1.158640        1.638996        2.488467
4
 generated by VMD
 O         0.126136       -0.528028        1.554743
 O        -1.162012        0.959230        1.863294
 H        -1.185288        0.058001        1.858067
 H        -1.116449        1.675998        2.457914
4
 generated by VMD
 O         0.139036       -0.530681        1.552484
 O        -1.148082        0.948843        1.880107
 H        -1.136945        0.056926        1.844308
 H        -1.080015        1.720122        2.453403
4
 generated by VMD
 O         0.153404       -0.535611        1.550275
 O        -1.138463        0.943912        1.897338
 H        -1.087253        0.008544        1.850266
 H        -1.032964        1.735152        2.458379
4
 generated by VMD
 O         0.168271       -0.541778        1.551156
 O        -1.129326        0.941791        1.913602
 H        -1.038336       -0.057093        1.873057
 H        -0.987099        1.734041        2.461633
4
 generated by VMD
 O         0.182338       -0.549568        1.551174
 O        -1.121273        0.938034        1.925968
 H        -0.977956       -0.107823        1.901361
 H        -0.938735        1.725415        2.470105
4
 generated by VMD
 O         0.195773       -0.555493        1.549468
 O        -1.113526        0.935105        1.938880
 H        -0.921172       -0.151877        1.938311
 H        -0.873830        1.701958        2.489504
4
 generated by VMD
 O         0.205748       -0.558535        1.546385
 O        -1.107215        0.935374        1.950105
 H        -0.864380       -0.181089        1.972218
 H        -0.814030        1.660399        2.515593
4
 generated by VMD
 O         0.217070       -0.563928        1.545889
 O        -1.102918        0.935956        1.959895
 H        -0.814818       -0.190575        2.000677
 H        -0.738163        1.627258        2.545379
4
 generated by VMD
 O         0.227037       -0.569945        1.546884
 O        -1.099010        0.938793        1.972726
 H        -0.746488       -0.194222        2.022694
 H        -0.671020        1.579527        2.580852
4
 generated by VMD
 O         0.236844       -0.575228        1.547635
 O        -1.093021        0.941296        1.985345
 H        -0.677641       -0.190466        2.045530
 H        -0.613735        1.538183        2.615515
4
 generated by VMD
 O         0.247762       -0.579556        1.549893
 O        -1.085756        0.944873        1.999754
 H        -0.604961       -0.182202        2.053334
 H        -0.552262        1.491929        2.643047
4
 generated by VMD
 O         0.259895       -0.583419        1.553264
 O        -1.079677        0.950863        2.016373
 H        -0.535184       -0.168001        2.079147
 H        -0.505385        1.443004        2.664020
4
 generated by VMD
 O         0.276588       -0.588874        1.556526
 O        -1.073982        0.959886        2.032473
 H        -0.471459       -0.158848        2.111912
 H        -0.463183        1.391255        2.679936
4
 generated by VMD
 O         0.293544       -0.596364        1.562819
 O        -1.069710        0.969410        2.053159
 H        -0.418245       -0.142569        2.156358
 H        -0.435754        1.330974        2.690719
4
 generated by VMD
 O         0.313703       -0.606016        1.566562
 O        -1.062895        0.978952        2.074108
 H        -0.370460       -0.133970        2.204346
 H        -0.408913        1.277212        2.710681
4
 generated by VMD
 O         0.335809       -0.620277        1.569920
 O        -1.057372        0.988220        2.094140
 H        -0.328689       -0.133216        2.251425
 H        -0.385287        1.235162        2.736828
4
 generated by VMD
 O         0.358424       -0.635385        1.575826
 O        -1.052270        0.994315        2.118186
 H        -0.274012       -0.136752        2.296237
 H        -0.356396        1.183261        2.759858
4
 generated by VMD
 O         0.381738       -0.647903        1.585842
 O        -1.043145        1.001897        2.142011
 H        -0.215139       -0.143561        2.338329
 H        -0.317693        1.155920        2.793185
4
 generated by VMD
 O         0.404502       -0.663011        1.594870
 O        -1.033975        1.006158        2.165541
 H        -0.157403       -0.165057        2.362140
 H        -0.278625        1.145582        2.826544
4
 generated by VMD
 O         0.426424       -0.676470        1.604315
 O        -1.024624        1.011364        2.192306
 H        -0.097863       -0.198716        2.365800
 H        -0.255421        1.154532        2.862114
4
 generated by VMD
 O         0.449762       -0.689213        1.616501
 O        -1.012846        1.017920        2.218444
 H        -0.037937       -0.248004        2.349129
 H        -0.236695        1.169518        2.889470
4
 generated by VMD
 O         0.473468       -0.700460        1.624676
 O        -1.001632        1.026042        2.247252
 H         0.019164       -0.286424        2.315731
 H        -0.244775        1.179975        2.910233
4
 generated by VMD
 O         0.496501       -0.714959        1.632828
 O        -0.990681        1.034696        2.278358
 H         0.057867       -0.327856        2.302661
 H        -0.262616        1.194118        2.931079
4
 generated by VMD
 O         0.522115       -0.730849        1.637882
 O        -0.977882        1.043211        2.309844
 H         0.060943       -0.353443        2.342584
 H        -0.291601        1.209746        2.948714
4
 generated by VMD
 O         0.548424       -0.747328        1.639672
 O        -0.965850        1.050663        2.341068
 H         0.049441       -0.378928        2.420619
 H        -0.309103        1.231642        2.981682
4
 generated by VMD
 O         0.571428       -0.766762        1.644711
 O        -0.952332        1.059473        2.370526
 H         0.036931       -0.418670        2.487083
 H        -0.316522        1.266902        3.017207
4
 generated by VMD
 O         0.593270       -0.787768        1.652470
 O        -0.936253        1.066864        2.401923
 H         0.035113       -0.463614        2.528756
 H        -0.318694        1.317884        3.063160
4
 generated by VMD
 O         0.607536       -0.805344        1.661918
 O        -0.923957        1.074137        2.429123
 H         0.040991       -0.526474        2.538843
 H        -0.292278        1.376892        3.119892
4
 generated by VMD
 O         0.619129       -0.820352        1.673858
 O        -0.911185        1.083296        2.455717
 H         0.042073       -0.605231        2.521951
 H        -0.262575        1.434929        3.175189
4
 generated by VMD
 O         0.628509       -0.835565        1.684891
 O        -0.897759        1.090728        2.484231
 H         0.054159       -0.678994        2.478101
 H        -0.248451        1.480019        3.203753
4
 generated by VMD
 O         0.638790       -0.850259        1.696480
 O        -0.880960        1.095233        2.512467
 H         0.077410       -0.758989        2.418655
 H        -0.247981        1.509712        3.223065
4
 generated by VMD
 O         0.651064       -0.866111        1.703879
 O        -0.861685        1.098204        2.540389
 H         0.092144       -0.848861        2.386400
 H        -0.257485        1.529184        3.235174
4
 generated by VMD
 O         0.663833       -0.881749        1.707693
 O        -0.843486        1.104723        2.571378
 H         0.076873       -0.930829        2.388426
 H        -0.267198        1.543572        3.244673
4
 generated by VMD
 O         0.676557       -0.895959        1.710577
 O        -0.822899        1.110133        2.600230
 H         0.011645       -1.022782        2.423256
 H        -0.288237        1.550470        3.244056
4
 generated by VMD
 O         0.687792       -0.908093        1.713605
 O        -0.804050        1.114898        2.626763
 H        -0.038062       -1.123249        2.458919
 H        -0.305345        1.567517        3.254339
4
 generated by VMD
 O         0.697762       -0.923239        1.716241
 O        -0.786464        1.117612        2.648288
 H        -0.068598       -1.208012        2.484913
 H        -0.311969        1.606905        3.285908
4
 generated by VMD
 O         0.707158       -0.937863        1.718932
 O        -0.766155        1.121928        2.664508
 H        -0.073289       -1.286514        2.486137
 H        -0.306361        1.645385        3.331988
4
 generated by VMD
 O         0.718695       -0.954716        1.723357
 O        -0.749094        1.125240        2.681041
 H        -0.055320       -1.338913        2.463329
 H        -0.296986        1.689885        3.378157
4
 generated by VMD
 O         0.723808       -0.970768        1.731099
 O        -0.731780        1.129128        2.699588
 H        -0.003177       -1.368879        2.404832
 H        -0.302256        1.716095        3.403827
4
 generated by VMD
 O         0.724372       -0.990271        1.739596
 O        -0.712939        1.130937        2.716610
 H         0.071902       -1.387480        2.336958
 H        -0.316333        1.737061        3.418211
4
 generated by VMD
 O         0.721879       -1.009135        1.749054
 O        -0.696830        1.132238        2.733306
 H         0.144551       -1.409333        2.261854
 H        -0.330576        1.744956        3.418368
4
 generated by VMD
 O         0.725751       -1.024144        1.756958
 O        -0.677778        1.133196        2.748044
 H         0.178747       -1.466147        2.240280
 H        -0.367422        1.749980        3.426813
4
 generated by VMD
 O         0.730428       -1.032879        1.764316
 O        -0.657431        1.133523        2.761710
 H         0.153358       -1.570161        2.271465
 H        -0.413817        1.768896        3.452901
4
 generated by VMD
 O         0.735783       -1.041647        1.772908
 O        -0.635926        1.135803        2.771004
 H         0.119195       -1.685659        2.303143
 H        -0.455395        1.793153        3.477751
4
 generated by VMD
 O         0.741193       -1.051804        1.782091
 O        -0.614968        1.139232        2.780259
 H         0.100657       -1.786328        2.334521
 H        -0.499674        1.817838        3.500573
4
 generated by VMD
 O         0.745555       -1.063964        1.793262
 O        -0.593437        1.144732        2.788465
 H         0.102538       -1.863324        2.337458
 H        -0.537972        1.841510        3.516438
4
 generated by VMD
 O         0.747292       -1.076997        1.801314
 O        -0.570525        1.150836        2.798377
 H         0.129728       -1.908535        2.330947
 H        -0.583948        1.851748        3.518677
4
 generated by VMD
 O         0.745002       -1.093947        1.809346
 O        -0.548302        1.154240        2.809133
 H         0.182903       -1.902138        2.302266
 H        -0.648617        1.848172        3.502167
4
 generated by VMD
 O         0.744890       -1.108791        1.821439
 O        -0.526473        1.159293        2.819294
 H         0.262742       -1.872921        2.256346
 H        -0.701706        1.824469        3.486614
4
 generated by VMD
 O         0.744987       -1.122626        1.831664
 O        -0.502360        1.162066        2.829062
 H         0.348117       -1.826644        2.213979
 H        -0.756369        1.805296        3.474399
4
 generated by VMD
 O         0.743719       -1.139075        1.844795
 O        -0.475630        1.162542        2.840022
 H         0.401139       -1.830932        2.185630
 H        -0.807654        1.796117        3.478172
4
 generated by VMD
 O         0.746138       -1.150883        1.857833
 O        -0.448720        1.162213        2.846958
 H         0.403506       -1.909029        2.204194
 H        -0.852066        1.798627        3.491059
4
 generated by VMD
 O         0.750454       -1.158574        1.870770
 O        -0.421007        1.161249        2.856012
 H         0.385478       -2.031129        2.240403
 H        -0.879679        1.789875        3.492999
4
 generated by VMD
 O         0.754470       -1.167229        1.880576
 O        -0.394449        1.161932        2.866352
 H         0.390158       -2.127892        2.273274
 H        -0.913908        1.768627        3.479217
4
 generated by VMD
 O         0.757582       -1.178401        1.890631
 O        -0.368281        1.162765        2.877467
 H         0.406085       -2.189919        2.283234
 H        -0.930230        1.735288        3.459938
4
 generated by VMD
 O         0.759272       -1.191514        1.902083
 O        -0.341012        1.165399        2.887671
 H         0.435468       -2.198513        2.266021
 H        -0.931717        1.693259        3.441529
4
 generated by VMD
 O         0.761412       -1.210695        1.914026
 O        -0.314585        1.166706        2.902158
 H         0.467851       -2.153655        2.238814
 H        -0.940568        1.667270        3.412468
4
 generated by VMD
 O         0.763137       -1.231079        1.930019
 O        -0.286812        1.166516        2.917036
 H         0.519412       -2.079564        2.209625
 H        -0.947267        1.645574        3.385615
4
 generated by VMD
 O         0.764671       -1.253788        1.946699
 O        -0.260914        1.163842        2.929098
 H         0.559308       -2.029535        2.195574
 H        -0.968382        1.631710        3.370707
4
 generated by VMD
 O         0.768083       -1.267649        1.961928
 O        -0.235231        1.161292        2.941256
 H         0.576446       -2.066149        2.224833
 H        -1.009673        1.613630        3.360155
4
 generated by VMD
 O         0.775647       -1.276105        1.976523
 O        -0.210199        1.156626        2.955729
 H         0.587613       -2.171835        2.288513
 H        -1.038226        1.591614        3.356674
4
 generated by VMD
 O         0.784423       -1.282905        1.988422
 O        -0.186602        1.156579        2.969520
 H         0.603574       -2.275258        2.346918
 H        -1.058665        1.557058        3.329619
4
 generated by VMD
 O         0.794970       -1.292274        2.003548
 O        -0.163231        1.155651        2.980417
 H         0.626812       -2.352159        2.387359
 H        -1.068880        1.517052        3.294426
4
 generated by VMD
 O         0.804273       -1.302984        2.020004
 O        -0.140102        1.156471        2.988703
 H         0.650518       -2.374476        2.408298
 H        -1.053513        1.479879        3.237708
4
 generated by VMD
 O         0.815584       -1.313117        2.039069
 O        -0.116788        1.160849        2.997304
 H         0.695727       -2.361229        2.401628
 H        -1.019083        1.435802        3.184091
4
 generated by VMD
 O         0.826312       -1.325956        2.058648
 O        -0.095228        1.165938        3.003483
 H         0.749372       -2.308457        2.395578
 H        -0.986490        1.391443        3.131686
4
 generated by VMD
 O         0.833180       -1.339475        2.077684
 O        -0.071193        1.172464        3.006896
 H         0.806860       -2.216857        2.378128
 H        -0.986106        1.357698        3.082424
4
 generated by VMD
 O         0.843309       -1.352886        2.095683
 O        -0.046992        1.178331        3.011589
 H         0.875918       -2.135735        2.371735
 H        -1.006636        1.318099        3.033413
4
 generated by VMD
 O         0.855737       -1.357433        2.111840
 O        -0.021132        1.183121        3.017941
 H         0.943495       -2.170458        2.403856
 H        -1.024759        1.283726        2.988303
4
 generated by VMD
 O         0.869968       -1.356197        2.125942
 O         0.005182        1.188831        3.027641
 H         1.016871       -2.268655        2.470194
 H        -1.033825        1.259026        2.948312
4
 generated by VMD
 O         0.889673       -1.356129        2.136205
 O         0.029712        1.192927        3.037424
 H         1.091205       -2.358229        2.542786
 H        -1.014276        1.232165        2.910553
4
 generated by VMD
 O         0.912458       -1.355788        2.144457
 O         0.055308        1.197974        3.047771
 H         1.146301       -2.405692        2.594797
 H        -0.960131        1.215730        2.867996
4
 generated by VMD
 O         0.938565       -1.357107        2.152335
 O         0.079016        1.201432        3.056201
 H         1.193439       -2.422701        2.620541
 H        -0.887975        1.195162        2.811180
4
 generated by VMD
 O         0.968439       -1.359068        2.160286
 O         0.103243        1.206011        3.065153
 H         1.238503       -2.387852        2.630615
 H        -0.797749        1.165029        2.737535
4
 generated by VMD
 O         0.997294       -1.367333        2.169609
 O         0.131319        1.207731        3.074021
 H         1.276646       -2.313399        2.621978
 H        -0.723638        1.132610        2.662090
4
 generated by VMD
 O         1.027932       -1.376773        2.178049
 O         0.159042        1.208001        3.084446
 H         1.307346       -2.209071        2.591290
 H        -0.659676        1.100530        2.569661
4
 generated by VMD
 O         1.057471       -1.385544        2.186568
 O         0.184680        1.209762        3.093289
 H         1.336334       -2.110672        2.572013
 H        -0.592630        1.058604        2.477297
4
 generated by VMD
 O         1.084409       -1.389820        2.190705
 O         0.209431        1.209565        3.100048
 H         1.386153       -2.063150        2.586777
 H        -0.515009        1.020086        2.393993
4
 generated by VMD
 O         1.109656       -1.390249        2.191740
 O         0.231209        1.209467        3.104109
 H         1.472637       -2.090852        2.647628
 H        -0.417649        0.984065        2.321453
4
 generated by VMD
 O         1.134024       -1.386686        2.190474
 O         0.250428        1.206618        3.104631
 H         1.559580       -2.140303        2.731732
 H        -0.313801        0.952635        2.261096
4
 generated by VMD
 O         1.158246       -1.385977        2.191959
 O         0.270194        1.206557        3.106232
 H         1.639157       -2.167613        2.807279
 H        -0.201903        0.921081        2.213677
4
 generated by VMD
 O         1.181128       -1.387757        2.187735
 O         0.286539        1.207113        3.102384
 H         1.695383       -2.164595        2.869956
 H        -0.074317        0.878316        2.206242
4
 generated by VMD
 O         1.203497       -1.391894        2.183458
 O         0.297918        1.210096        3.095811
 H         1.727652       -2.109512        2.891681
 H         0.059856        0.839038        2.216448
4
 generated by VMD
 O         1.227147       -1.397886        2.180062
 O         0.309265        1.214551        3.090415
 H         1.733713       -2.015057        2.874256
 H         0.186449        0.799257        2.229461
4
 generated by VMD
 O         1.251915       -1.407576        2.178441
 O         0.321011        1.217325        3.086931
 H         1.728183       -1.895357        2.838775
 H         0.317751        0.751415        2.236167
4
 generated by VMD
 O         1.275979       -1.415056        2.175995
 O         0.331415        1.219868        3.083523
 H         1.726605       -1.776434        2.816820
 H         0.445457        0.690408        2.250027
4
 generated by VMD
 O         1.299369       -1.421532        2.173102
 O         0.340311        1.220569        3.076851
 H         1.763156       -1.696960        2.852076
 H         0.570913        0.633035        2.272567
4
 generated by VMD
 O         1.320860       -1.423934        2.166035
 O         0.350670        1.221611        3.068192
 H         1.829450       -1.646327        2.942184
 H         0.693485        0.592461        2.318707
