3
 generated by VMD
 O        -0.368091       -4.866437        1.268453
 O        -3.199947       -0.393715       -3.836914
 O        -2.668507       -1.383458       -3.640868
3
 generated by VMD
 O        -0.369936       -4.858337        1.270382
 O        -3.198354       -0.391536       -3.834092
 O        -2.670144       -1.387021       -3.637906
3
 generated by VMD
 O        -0.373624       -4.845694        1.272746
 O        -3.197783       -0.384997       -3.833024
 O        -2.669449       -1.390879       -3.632760
3
 generated by VMD
 O        -0.376124       -4.830316        1.274943
 O        -3.196966       -0.376370       -3.828924
 O        -2.665619       -1.397555       -3.624710
3
 generated by VMD
 O        -0.375632       -4.809731        1.275880
 O        -3.195695       -0.365728       -3.821813
 O        -2.657399       -1.408514       -3.612728
3
 generated by VMD
 O        -0.377948       -4.790464        1.279643
 O        -3.195127       -0.353740       -3.817018
 O        -2.649087       -1.422771       -3.595991
3
 generated by VMD
 O        -0.379765       -4.769561        1.284481
 O        -3.192962       -0.342980       -3.811121
 O        -2.642064       -1.437200       -3.572286
3
 generated by VMD
 O        -0.383247       -4.746591        1.290263
 O        -3.185476       -0.335553       -3.801038
 O        -2.634623       -1.450109       -3.547920
3
 generated by VMD
 O        -0.388486       -4.720456        1.296226
 O        -3.177332       -0.333481       -3.787893
 O        -2.630565       -1.461310       -3.523297
3
 generated by VMD
 O        -0.396833       -4.692272        1.302819
 O        -3.166412       -0.335912       -3.770569
 O        -2.628256       -1.466933       -3.496992
3
 generated by VMD
 O        -0.402986       -4.659721        1.309090
 O        -3.158173       -0.340778       -3.750157
 O        -2.626266       -1.470942       -3.467539
3
 generated by VMD
 O        -0.410285       -4.627997        1.319067
 O        -3.145117       -0.351952       -3.727829
 O        -2.623209       -1.468962       -3.437109
3
 generated by VMD
 O        -0.418200       -4.593122        1.329608
 O        -3.127275       -0.367242       -3.703059
 O        -2.619797       -1.462042       -3.402128
3
 generated by VMD
 O        -0.429256       -4.556072        1.342427
 O        -3.108768       -0.382419       -3.674412
 O        -2.617072       -1.455056       -3.367444
3
 generated by VMD
 O        -0.438532       -4.517780        1.352155
 O        -3.088615       -0.402100       -3.643768
 O        -2.612988       -1.446587       -3.330883
3
 generated by VMD
 O        -0.445435       -4.477368        1.363878
 O        -3.065506       -0.421296       -3.613791
 O        -2.611004       -1.436475       -3.295096
3
 generated by VMD
 O        -0.450180       -4.436737        1.374346
 O        -3.041046       -0.439057       -3.586729
 O        -2.607659       -1.429431       -3.259051
3
 generated by VMD
 O        -0.456510       -4.397720        1.385058
 O        -3.016164       -0.450910       -3.562576
 O        -2.606492       -1.423987       -3.221039
3
 generated by VMD
 O        -0.462990       -4.356946        1.393572
 O        -2.991056       -0.456842       -3.536730
 O        -2.597727       -1.423039       -3.180337
3
 generated by VMD
 O        -0.468865       -4.315033        1.405104
 O        -2.964001       -0.456713       -3.511798
 O        -2.584262       -1.425621       -3.137009
3
 generated by VMD
 O        -0.474423       -4.274683        1.420171
 O        -2.940263       -0.454084       -3.489402
 O        -2.564911       -1.433287       -3.091147
3
 generated by VMD
 O        -0.477029       -4.235229        1.436102
 O        -2.915901       -0.447707       -3.466355
 O        -2.544882       -1.442404       -3.041481
3
 generated by VMD
 O        -0.477209       -4.194515        1.452081
 O        -2.894486       -0.439380       -3.443337
 O        -2.521800       -1.452027       -2.988713
3
 generated by VMD
 O        -0.478629       -4.154584        1.470766
 O        -2.872530       -0.430388       -3.422173
 O        -2.497834       -1.460628       -2.934069
3
 generated by VMD
 O        -0.481988       -4.114362        1.486949
 O        -2.847343       -0.423591       -3.399757
 O        -2.476165       -1.464297       -2.880567
3
 generated by VMD
 O        -0.484327       -4.069191        1.501941
 O        -2.821148       -0.419824       -3.375776
 O        -2.454372       -1.467961       -2.827939
3
 generated by VMD
 O        -0.488114       -4.025325        1.518763
 O        -2.792238       -0.419104       -3.348325
 O        -2.434136       -1.469997       -2.773173
3
 generated by VMD
 O        -0.490588       -3.980308        1.533471
 O        -2.761852       -0.423120       -3.319221
 O        -2.416903       -1.466561       -2.718862
3
 generated by VMD
 O        -0.490234       -3.930623        1.548196
 O        -2.727807       -0.427752       -3.288639
 O        -2.400387       -1.458131       -2.665046
3
 generated by VMD
 O        -0.494398       -3.876329        1.563823
 O        -2.693550       -0.431378       -3.256698
 O        -2.380614       -1.447629       -2.608244
3
 generated by VMD
 O        -0.501719       -3.819507        1.579084
 O        -2.658112       -0.438454       -3.224005
 O        -2.361183       -1.434983       -2.550906
3
 generated by VMD
 O        -0.509810       -3.763154        1.594578
 O        -2.618229       -0.445104       -3.188418
 O        -2.338389       -1.418715       -2.497166
3
 generated by VMD
 O        -0.518306       -3.705839        1.612049
 O        -2.575840       -0.452108       -3.149791
 O        -2.313736       -1.398953       -2.443657
3
 generated by VMD
 O        -0.526831       -3.651660        1.629109
 O        -2.534508       -0.462481       -3.110303
 O        -2.287660       -1.378240       -2.392298
3
 generated by VMD
 O        -0.536048       -3.597627        1.644653
 O        -2.491583       -0.472875       -3.069883
 O        -2.260543       -1.357680       -2.344478
3
 generated by VMD
 O        -0.545676       -3.540518        1.662104
 O        -2.447852       -0.482883       -3.028369
 O        -2.230456       -1.336824       -2.291087
3
 generated by VMD
 O        -0.555482       -3.482640        1.681637
 O        -2.406679       -0.488895       -2.986018
 O        -2.200106       -1.318001       -2.234830
3
 generated by VMD
 O        -0.567319       -3.422429        1.701468
 O        -2.369427       -0.496247       -2.944740
 O        -2.169302       -1.301002       -2.176945
3
 generated by VMD
 O        -0.573886       -3.363035        1.722427
 O        -2.328112       -0.500032       -2.904469
 O        -2.137636       -1.288458       -2.114070
3
 generated by VMD
 O        -0.580241       -3.303876        1.741502
 O        -2.284013       -0.502906       -2.864108
 O        -2.105914       -1.276882       -2.049550
3
 generated by VMD
 O        -0.589572       -3.242562        1.761078
 O        -2.239259       -0.505992       -2.826345
 O        -2.074583       -1.267233       -1.980953
3
 generated by VMD
 O        -0.599473       -3.176430        1.778646
 O        -2.195179       -0.508451       -2.792842
 O        -2.042445       -1.260382       -1.908825
3
 generated by VMD
 O        -0.612221       -3.110247        1.793629
 O        -2.149868       -0.508506       -2.759073
 O        -2.008247       -1.252511       -1.835577
3
 generated by VMD
 O        -0.621416       -3.041712        1.806575
 O        -2.106532       -0.507713       -2.725726
 O        -1.974856       -1.242826       -1.763902
3
 generated by VMD
 O        -0.631386       -2.972031        1.820624
 O        -2.061913       -0.506626       -2.687870
 O        -1.943730       -1.232808       -1.692612
3
 generated by VMD
 O        -0.640400       -2.906179        1.834949
 O        -2.018103       -0.507598       -2.649385
 O        -1.913514       -1.221812       -1.620341
3
 generated by VMD
 O        -0.649554       -2.841434        1.848597
 O        -1.975353       -0.510007       -2.611551
 O        -1.883704       -1.211590       -1.551969
3
 generated by VMD
 O        -0.656865       -2.778533        1.862021
 O        -1.931441       -0.514776       -2.569971
 O        -1.857170       -1.201941       -1.488989
3
 generated by VMD
 O        -0.665812       -2.717996        1.877135
 O        -1.885173       -0.521991       -2.524852
 O        -1.830021       -1.191205       -1.434071
3
 generated by VMD
 O        -0.673558       -2.656653        1.890970
 O        -1.839627       -0.529556       -2.473954
 O        -1.801664       -1.178800       -1.382728
3
 generated by VMD
 O        -0.682278       -2.595073        1.900610
 O        -1.794226       -0.538292       -2.418415
 O        -1.773807       -1.163494       -1.333734
3
 generated by VMD
 O        -0.690357       -2.533140        1.909637
 O        -1.750901       -0.549038       -2.360047
 O        -1.746111       -1.147105       -1.289083
3
 generated by VMD
 O        -0.698479       -2.471317        1.920470
 O        -1.709229       -0.560135       -2.301549
 O        -1.719459       -1.128752       -1.246331
3
 generated by VMD
 O        -0.706075       -2.409208        1.930340
 O        -1.667907       -0.574332       -2.239569
 O        -1.689917       -1.113226       -1.204255
3
 generated by VMD
 O        -0.712312       -2.347150        1.939717
 O        -1.628824       -0.588519       -2.182084
 O        -1.658817       -1.099219       -1.162451
3
 generated by VMD
 O        -0.717291       -2.284922        1.945949
 O        -1.588154       -0.603050       -2.128850
 O        -1.628332       -1.085230       -1.114437
3
 generated by VMD
 O        -0.723322       -2.221299        1.952256
 O        -1.547833       -0.614592       -2.078267
 O        -1.595872       -1.071590       -1.061529
3
 generated by VMD
 O        -0.728830       -2.157390        1.957804
 O        -1.507566       -0.624897       -2.032305
 O        -1.560113       -1.059618       -1.005648
3
 generated by VMD
 O        -0.735097       -2.095607        1.960506
 O        -1.469368       -0.634642       -1.988206
 O        -1.526267       -1.049124       -0.946079
3
 generated by VMD
 O        -0.741203       -2.033251        1.962336
 O        -1.433773       -0.640171       -1.947938
 O        -1.494994       -1.038815       -0.884369
3
 generated by VMD
 O        -0.746995       -1.972272        1.965349
 O        -1.394941       -0.643236       -1.909472
 O        -1.464867       -1.031851       -0.821018
3
 generated by VMD
 O        -0.754090       -1.911260        1.971370
 O        -1.354045       -0.645289       -1.874290
 O        -1.432527       -1.027526       -0.759201
3
 generated by VMD
 O        -0.761246       -1.848698        1.980665
 O        -1.312351       -0.646282       -1.837076
 O        -1.400479       -1.023228       -0.696193
3
 generated by VMD
 O        -0.771533       -1.790627        1.992362
 O        -1.269530       -0.647629       -1.798949
 O        -1.367260       -1.016817       -0.633729
3
 generated by VMD
 O        -0.783453       -1.731858        2.003434
 O        -1.221952       -0.647697       -1.758472
 O        -1.334288       -1.009254       -0.572895
3
 generated by VMD
 O        -0.793428       -1.675460        2.017999
 O        -1.175410       -0.652246       -1.715098
 O        -1.299614       -1.003096       -0.515396
3
 generated by VMD
 O        -0.800771       -1.619827        2.029341
 O        -1.129874       -0.660832       -1.670689
 O        -1.264324       -0.993624       -0.462157
3
 generated by VMD
 O        -0.807253       -1.564446        2.041270
 O        -1.081479       -0.673639       -1.626948
 O        -1.230461       -0.983463       -0.413416
3
 generated by VMD
 O        -0.813426       -1.510041        2.051313
 O        -1.032101       -0.688427       -1.579829
 O        -1.198095       -0.973247       -0.368414
3
 generated by VMD
 O        -0.820044       -1.455566        2.060982
 O        -0.985821       -0.704286       -1.529430
 O        -1.164994       -0.964327       -0.324074
3
 generated by VMD
 O        -0.824707       -1.402637        2.070883
 O        -0.940567       -0.721360       -1.477650
 O        -1.136700       -0.953587       -0.281996
3
 generated by VMD
 O        -0.830378       -1.348448        2.078154
 O        -0.898409       -0.741227       -1.424191
 O        -1.109478       -0.942574       -0.243477
3
 generated by VMD
 O        -0.834016       -1.296518        2.083635
 O        -0.855044       -0.764011       -1.364836
 O        -1.077940       -0.934391       -0.207204
3
 generated by VMD
 O        -0.834775       -1.243288        2.088384
 O        -0.813351       -0.787172       -1.304183
 O        -1.043996       -0.923935       -0.171754
3
 generated by VMD
 O        -0.830592       -1.189089        2.092469
 O        -0.767491       -0.806449       -1.247095
 O        -1.010365       -0.913392       -0.136485
3
 generated by VMD
 O        -0.823210       -1.135564        2.099607
 O        -0.720991       -0.826645       -1.190468
 O        -0.976991       -0.902149       -0.100377
3
 generated by VMD
 O        -0.814306       -1.083827        2.105879
 O        -0.673840       -0.844981       -1.140975
 O        -0.946643       -0.892358       -0.060258
3
 generated by VMD
 O        -0.803296       -1.031828        2.108150
 O        -0.622167       -0.863483       -1.095813
 O        -0.917865       -0.883539       -0.016936
3
 generated by VMD
 O        -0.793345       -0.981702        2.111530
 O        -0.571589       -0.879777       -1.052182
 O        -0.890413       -0.876670        0.029704
3
 generated by VMD
 O        -0.782795       -0.932944        2.115603
 O        -0.521249       -0.895364       -1.011491
 O        -0.864612       -0.869253        0.080481
3
 generated by VMD
 O        -0.770843       -0.885360        2.119748
 O        -0.471480       -0.914179       -0.974145
 O        -0.838893       -0.861931        0.132569
3
 generated by VMD
 O        -0.754098       -0.839336        2.124595
 O        -0.419493       -0.929130       -0.934664
 O        -0.815009       -0.849460        0.188182
3
 generated by VMD
 O        -0.738631       -0.793217        2.126879
 O        -0.365542       -0.945880       -0.892642
 O        -0.791194       -0.837009        0.242628
3
 generated by VMD
 O        -0.720350       -0.747595        2.125400
 O        -0.313295       -0.963907       -0.849903
 O        -0.769507       -0.822569        0.294894
3
 generated by VMD
 O        -0.699720       -0.705235        2.122812
 O        -0.261853       -0.984596       -0.801998
 O        -0.753592       -0.807944        0.347700
3
 generated by VMD
 O        -0.677767       -0.661287        2.118902
 O        -0.210834       -1.003312       -0.749949
 O        -0.737913       -0.797466        0.399456
3
 generated by VMD
 O        -0.653986       -0.621816        2.110956
 O        -0.160332       -1.023606       -0.696877
 O        -0.727393       -0.786136        0.447504
3
 generated by VMD
 O        -0.629402       -0.584098        2.102280
 O        -0.110020       -1.041536       -0.641218
 O        -0.714771       -0.774019        0.495345
3
 generated by VMD
 O        -0.603656       -0.547952        2.089496
 O        -0.058415       -1.057540       -0.585189
 O        -0.702863       -0.765679        0.542588
3
 generated by VMD
 O        -0.578073       -0.514796        2.074362
 O        -0.007584       -1.071093       -0.526737
 O        -0.689188       -0.755314        0.589381
3
 generated by VMD
 O        -0.553253       -0.484177        2.055253
 O         0.043816       -1.084296       -0.465818
 O        -0.678214       -0.744799        0.634317
3
 generated by VMD
 O        -0.528857       -0.454015        2.033776
 O         0.093528       -1.094004       -0.400150
 O        -0.670056       -0.735109        0.681125
3
 generated by VMD
 O        -0.502036       -0.427441        2.008769
 O         0.142633       -1.104052       -0.329438
 O        -0.659847       -0.727786        0.730765
3
 generated by VMD
 O        -0.472217       -0.405060        1.982067
 O         0.194352       -1.111762       -0.255475
 O        -0.653709       -0.719017        0.782697
3
 generated by VMD
 O        -0.441953       -0.384329        1.953795
 O         0.240896       -1.117960       -0.180903
 O        -0.647398       -0.711464        0.832793
3
 generated by VMD
 O        -0.412213       -0.363407        1.924485
 O         0.284168       -1.128373       -0.102806
 O        -0.639540       -0.706261        0.879970
3
 generated by VMD
 O        -0.379127       -0.341291        1.897914
 O         0.326089       -1.139420       -0.023551
 O        -0.630833       -0.702623        0.920260
3
 generated by VMD
 O        -0.345356       -0.315705        1.882570
 O         0.365929       -1.153234        0.053077
 O        -0.624133       -0.705089        0.948259
3
 generated by VMD
 O        -0.308253       -0.288476        1.874661
 O         0.402862       -1.166753        0.132279
 O        -0.622846       -0.711644        0.966817
3
 generated by VMD
 O        -0.267184       -0.255942        1.874377
 O         0.437731       -1.182088        0.206132
 O        -0.622887       -0.723631        0.974417
3
 generated by VMD
 O        -0.224255       -0.216454        1.880864
 O         0.467070       -1.198210        0.277681
 O        -0.623350       -0.740709        0.973420
3
 generated by VMD
 O        -0.183386       -0.173120        1.894040
 O         0.492308       -1.215833        0.347071
 O        -0.623398       -0.763592        0.966300
3
 generated by VMD
 O        -0.142803       -0.129732        1.910696
 O         0.510704       -1.231081        0.414024
 O        -0.620578       -0.785891        0.956985
3
 generated by VMD
 O        -0.106052       -0.085543        1.928163
 O         0.525756       -1.247761        0.480826
 O        -0.614487       -0.807841        0.947725
3
 generated by VMD
 O        -0.073568       -0.043515        1.945323
 O         0.538557       -1.263485        0.547350
 O        -0.604809       -0.828564        0.936324
3
 generated by VMD
 O        -0.045293       -0.001881        1.963794
 O         0.547925       -1.280283        0.612015
 O        -0.590116       -0.848172        0.929611
3
 generated by VMD
 O        -0.022417        0.037982        1.981495
 O         0.555129       -1.299425        0.673901
 O        -0.571784       -0.866194        0.925329
3
 generated by VMD
 O        -0.003325        0.075705        1.999852
 O         0.561236       -1.319531        0.732600
 O        -0.548688       -0.882314        0.925947
3
 generated by VMD
 O         0.011965        0.116858        2.016171
 O         0.564974       -1.340343        0.790049
 O        -0.521465       -0.895343        0.931983
3
 generated by VMD
 O         0.022860        0.158029        2.033802
 O         0.566425       -1.362176        0.847428
 O        -0.490574       -0.906032        0.940584
3
 generated by VMD
 O         0.027512        0.200067        2.050733
 O         0.568448       -1.384745        0.905374
 O        -0.457099       -0.910826        0.952464
3
 generated by VMD
 O         0.031696        0.244334        2.065135
 O         0.573559       -1.409158        0.960925
 O        -0.421635       -0.910687        0.967230
3
 generated by VMD
 O         0.031420        0.289303        2.077228
 O         0.583215       -1.437559        1.011698
 O        -0.389557       -0.905729        0.984508
3
 generated by VMD
 O         0.027765        0.336159        2.090345
 O         0.594753       -1.468315        1.061269
 O        -0.360533       -0.900695        1.007922
3
 generated by VMD
 O         0.022867        0.381138        2.103945
 O         0.611882       -1.505202        1.111590
 O        -0.334372       -0.892680        1.035707
3
 generated by VMD
 O         0.019072        0.425987        2.114534
 O         0.631500       -1.545936        1.160678
 O        -0.307107       -0.880598        1.064666
3
 generated by VMD
 O         0.016377        0.466482        2.125684
 O         0.653346       -1.586024        1.208035
 O        -0.279062       -0.866468        1.098752
3
 generated by VMD
 O         0.013196        0.503692        2.138798
 O         0.675467       -1.625044        1.252230
 O        -0.251208       -0.848854        1.135828
3
 generated by VMD
 O         0.008385        0.537804        2.151352
 O         0.696763       -1.661472        1.294740
 O        -0.222525       -0.829045        1.176373
3
 generated by VMD
 O         0.000795        0.567685        2.162834
 O         0.715688       -1.695359        1.336659
 O        -0.193844       -0.808804        1.217658
3
 generated by VMD
 O        -0.006818        0.593677        2.174574
 O         0.731315       -1.725694        1.376126
 O        -0.162677       -0.787059        1.262195
3
 generated by VMD
 O        -0.014086        0.621519        2.179374
 O         0.743259       -1.751642        1.415424
 O        -0.126200       -0.767661        1.306647
3
 generated by VMD
 O        -0.018245        0.648180        2.183812
 O         0.754581       -1.770766        1.460134
 O        -0.089775       -0.748737        1.352828
3
 generated by VMD
 O        -0.024279        0.672376        2.189602
 O         0.764057       -1.785655        1.505123
 O        -0.051761       -0.727311        1.401270
3
 generated by VMD
 O        -0.029395        0.688800        2.192305
 O         0.774590       -1.798649        1.548553
 O        -0.012845       -0.708784        1.449647
3
 generated by VMD
 O        -0.036246        0.698782        2.195046
 O         0.782071       -1.807956        1.590339
 O         0.025461       -0.690564        1.493476
3
 generated by VMD
 O        -0.041633        0.707594        2.195366
 O         0.789099       -1.814365        1.632506
 O         0.063649       -0.673921        1.536718
3
 generated by VMD
 O        -0.045779        0.716524        2.195342
 O         0.793518       -1.818011        1.677199
 O         0.104407       -0.657367        1.582119
3
 generated by VMD
 O        -0.049734        0.723848        2.197499
 O         0.796387       -1.818084        1.725381
 O         0.144747       -0.639544        1.626608
3
 generated by VMD
 O        -0.054263        0.725030        2.200426
 O         0.798332       -1.814478        1.773141
 O         0.184549       -0.622314        1.672608
3
 generated by VMD
 O        -0.058231        0.721186        2.205209
 O         0.797297       -1.805618        1.819465
 O         0.222077       -0.606860        1.713885
3
 generated by VMD
 O        -0.058667        0.715508        2.209207
 O         0.795682       -1.791728        1.867785
 O         0.258061       -0.591693        1.751945
3
 generated by VMD
 O        -0.059138        0.710984        2.211679
 O         0.792577       -1.773093        1.919603
 O         0.296361       -0.578971        1.790637
3
 generated by VMD
 O        -0.056633        0.705230        2.219583
 O         0.791019       -1.755948        1.972479
 O         0.332592       -0.566002        1.825546
3
 generated by VMD
 O        -0.051485        0.696840        2.225938
 O         0.785947       -1.732727        2.026832
 O         0.366163       -0.554564        1.856577
3
 generated by VMD
 O        -0.046968        0.687868        2.234185
 O         0.778868       -1.712628        2.082808
 O         0.399423       -0.540464        1.883801
3
 generated by VMD
 O        -0.040407        0.678539        2.245067
 O         0.769868       -1.694937        2.140450
 O         0.433452       -0.527372        1.909258
3
 generated by VMD
 O        -0.032743        0.665929        2.259385
 O         0.763185       -1.676380        2.201644
 O         0.468294       -0.511660        1.929806
3
 generated by VMD
 O        -0.024832        0.650150        2.273256
 O         0.758164       -1.661249        2.262987
 O         0.503501       -0.489285        1.946735
3
 generated by VMD
 O        -0.015667        0.635431        2.290796
 O         0.752720       -1.641332        2.326026
 O         0.543389       -0.461730        1.961319
3
 generated by VMD
 O        -0.011131        0.617521        2.309632
 O         0.744952       -1.618452        2.389875
 O         0.583802       -0.434635        1.972461
3
 generated by VMD
 O        -0.009608        0.601017        2.329534
 O         0.732778       -1.594638        2.455733
 O         0.625377       -0.408966        1.980702
3
 generated by VMD
 O        -0.010644        0.580838        2.350614
 O         0.718986       -1.571234        2.523087
 O         0.670044       -0.382607        1.986259
3
 generated by VMD
 O        -0.013091        0.560052        2.372787
 O         0.702017       -1.545665        2.590291
 O         0.713975       -0.357832        1.993791
3
 generated by VMD
 O        -0.019134        0.539787        2.396456
 O         0.682862       -1.520137        2.654375
 O         0.754264       -0.334945        2.005589
3
 generated by VMD
 O        -0.025196        0.517641        2.417619
 O         0.663847       -1.492800        2.718383
 O         0.793612       -0.316093        2.017333
3
 generated by VMD
 O        -0.030288        0.495109        2.437368
 O         0.642859       -1.462152        2.779987
 O         0.832173       -0.301979        2.033117
3
 generated by VMD
 O        -0.033941        0.476172        2.452776
 O         0.626494       -1.427508        2.841516
 O         0.867400       -0.287065        2.051663
3
 generated by VMD
 O        -0.038003        0.459290        2.465949
 O         0.612799       -1.391631        2.900285
 O         0.898764       -0.275956        2.074277
3
 generated by VMD
 O        -0.044237        0.440579        2.475141
 O         0.602553       -1.356087        2.956995
 O         0.924095       -0.266954        2.100229
3
 generated by VMD
 O        -0.048451        0.425231        2.484873
 O         0.594688       -1.320241        3.008401
 O         0.943320       -0.257623        2.129881
3
 generated by VMD
 O        -0.050866        0.415309        2.492829
 O         0.590924       -1.285462        3.061091
 O         0.958605       -0.255584        2.163247
3
 generated by VMD
 O        -0.052219        0.408793        2.497655
 O         0.587808       -1.249062        3.111648
 O         0.971684       -0.257390        2.199871
3
 generated by VMD
 O        -0.050364        0.406482        2.501022
 O         0.587899       -1.215423        3.159549
 O         0.978710       -0.261377        2.238676
3
 generated by VMD
 O        -0.049625        0.410997        2.500374
 O         0.591029       -1.183198        3.205004
 O         0.981438       -0.265872        2.279069
3
 generated by VMD
 O        -0.046512        0.417057        2.497221
 O         0.596361       -1.155486        3.243678
 O         0.981792       -0.269716        2.322659
3
 generated by VMD
 O        -0.041925        0.431445        2.490995
 O         0.608366       -1.129447        3.278607
 O         0.978506       -0.270626        2.368638
3
 generated by VMD
 O        -0.039090        0.451091        2.480011
 O         0.620023       -1.104001        3.312652
 O         0.973059       -0.271268        2.420054
3
 generated by VMD
 O        -0.036148        0.470466        2.468258
 O         0.633671       -1.076450        3.349094
 O         0.966479       -0.271747        2.476081
3
 generated by VMD
 O        -0.031046        0.492743        2.450855
 O         0.651239       -1.054036        3.385452
 O         0.959468       -0.275672        2.530167
3
 generated by VMD
 O        -0.028308        0.516077        2.431984
 O         0.671708       -1.034447        3.423021
 O         0.948159       -0.278221        2.585580
3
 generated by VMD
 O        -0.023613        0.543489        2.411744
 O         0.689348       -1.020959        3.462248
 O         0.935618       -0.280429        2.641855
3
 generated by VMD
 O        -0.017591        0.570808        2.391218
 O         0.709119       -1.013566        3.501167
 O         0.922566       -0.279337        2.693264
3
 generated by VMD
 O        -0.010717        0.597566        2.373476
 O         0.730861       -1.009262        3.540847
 O         0.910595       -0.276435        2.738508
3
 generated by VMD
 O        -0.000108        0.622181        2.358784
 O         0.749770       -1.009334        3.584886
 O         0.901620       -0.268898        2.776109
3
 generated by VMD
 O         0.013958        0.645589        2.346288
 O         0.768132       -1.009335        3.632395
 O         0.892901       -0.258778        2.807090
3
 generated by VMD
 O         0.029926        0.669258        2.337162
 O         0.785131       -1.009229        3.680610
 O         0.886098       -0.245887        2.831210
3
 generated by VMD
 O         0.044453        0.692315        2.326118
 O         0.800914       -1.009106        3.731337
 O         0.883929       -0.230802        2.847733
3
 generated by VMD
 O         0.056593        0.713747        2.317443
 O         0.818734       -1.009705        3.783466
 O         0.880031       -0.210986        2.860933
3
 generated by VMD
 O         0.067789        0.731238        2.310247
 O         0.834777       -1.007855        3.834895
 O         0.877149       -0.188854        2.872206
3
 generated by VMD
 O         0.079410        0.745929        2.305580
 O         0.849511       -1.004211        3.883286
 O         0.874321       -0.164255        2.878487
3
 generated by VMD
 O         0.092828        0.757580        2.303488
 O         0.863801       -0.997955        3.933222
 O         0.870760       -0.141155        2.881961
3
 generated by VMD
 O         0.107565        0.767788        2.300925
 O         0.876626       -0.991222        3.980104
 O         0.868471       -0.117280        2.886382
3
 generated by VMD
 O         0.122750        0.775481        2.300515
 O         0.890229       -0.978709        4.023878
 O         0.864975       -0.097612        2.887497
3
 generated by VMD
 O         0.137384        0.782262        2.303888
 O         0.899429       -0.964943        4.061936
 O         0.866299       -0.080702        2.883862
3
 generated by VMD
 O         0.148366        0.786909        2.309479
 O         0.908631       -0.949064        4.093619
 O         0.866916       -0.065361        2.880028
3
 generated by VMD
 O         0.157754        0.791013        2.316395
 O         0.918564       -0.929576        4.122078
 O         0.868463       -0.052638        2.874814
3
 generated by VMD
 O         0.171031        0.792722        2.322292
 O         0.929322       -0.909649        4.145257
 O         0.872969       -0.038838        2.871169
3
 generated by VMD
 O         0.183123        0.795874        2.327602
 O         0.939503       -0.887999        4.164287
 O         0.879723       -0.027011        2.866914
3
 generated by VMD
 O         0.197520        0.797717        2.333650
 O         0.950006       -0.861092        4.178063
 O         0.887494       -0.015863        2.862525
3
 generated by VMD
 O         0.212033        0.802394        2.340189
 O         0.959518       -0.834735        4.188715
 O         0.897464       -0.006248        2.861200
3
 generated by VMD
 O         0.226549        0.805321        2.349439
 O         0.964707       -0.802390        4.193540
 O         0.910806        0.002612        2.858470
3
 generated by VMD
 O         0.239165        0.809699        2.360154
 O         0.970656       -0.766383        4.192776
 O         0.928340        0.008063        2.856942
3
 generated by VMD
 O         0.250261        0.813043        2.372903
 O         0.974559       -0.726468        4.188891
 O         0.947674        0.009035        2.853171
3
 generated by VMD
 O         0.262283        0.817617        2.386236
 O         0.976401       -0.686131        4.181483
 O         0.967287        0.005178        2.849548
3
 generated by VMD
 O         0.274808        0.824815        2.402375
 O         0.977633       -0.644609        4.166741
 O         0.988741       -0.000243        2.847069
3
 generated by VMD
 O         0.285629        0.832777        2.418143
 O         0.976544       -0.599272        4.147670
 O         1.011526       -0.010066        2.845816
3
 generated by VMD
 O         0.294940        0.839615        2.432765
 O         0.973653       -0.549526        4.125850
 O         1.034545       -0.021762        2.845237
3
 generated by VMD
 O         0.301790        0.846427        2.448775
 O         0.969184       -0.499728        4.101519
 O         1.061141       -0.032245        2.846451
3
 generated by VMD
 O         0.308776        0.853503        2.463990
 O         0.964532       -0.448858        4.075869
 O         1.086046       -0.044879        2.848857
3
 generated by VMD
 O         0.314151        0.865360        2.475636
 O         0.964777       -0.398649        4.047424
 O         1.111537       -0.057320        2.856462
3
 generated by VMD
 O         0.318261        0.877818        2.483958
 O         0.964598       -0.344315        4.016533
 O         1.135540       -0.068128        2.863637
3
 generated by VMD
 O         0.324455        0.893634        2.489284
 O         0.962552       -0.291852        3.989969
 O         1.155351       -0.078415        2.869956
3
 generated by VMD
 O         0.331713        0.908973        2.493770
 O         0.960984       -0.241431        3.968228
 O         1.171555       -0.086406        2.875223
3
 generated by VMD
 O         0.339564        0.924618        2.498620
 O         0.964222       -0.193721        3.951431
 O         1.189344       -0.091420        2.875549
3
 generated by VMD
 O         0.347449        0.940038        2.503434
 O         0.969744       -0.151233        3.939535
 O         1.205238       -0.090959        2.870607
3
 generated by VMD
 O         0.360098        0.955743        2.506117
 O         0.978843       -0.112188        3.936445
 O         1.217370       -0.090156        2.860643
3
 generated by VMD
 O         0.370236        0.970151        2.504113
 O         0.984417       -0.078330        3.940887
 O         1.227091       -0.083209        2.844085
3
 generated by VMD
 O         0.381220        0.985333        2.500111
 O         0.993093       -0.047629        3.949918
 O         1.235897       -0.070727        2.824583
3
 generated by VMD
 O         0.390775        1.000168        2.495707
 O         0.998937       -0.021117        3.962919
 O         1.240798       -0.053792        2.804070
3
 generated by VMD
 O         0.401895        1.014097        2.484580
 O         1.007449        0.001478        3.979895
 O         1.243933       -0.031336        2.783590
3
 generated by VMD
 O         0.411818        1.026250        2.468960
 O         1.022086        0.016409        3.998140
 O         1.242713       -0.008347        2.761332
3
 generated by VMD
 O         0.420537        1.035952        2.448182
 O         1.036857        0.028943        4.012046
 O         1.236565        0.025318        2.739880
3
 generated by VMD
 O         0.433150        1.046208        2.426261
 O         1.054467        0.041584        4.023508
 O         1.228529        0.062154        2.721034
3
 generated by VMD
 O         0.442538        1.054214        2.402025
 O         1.074612        0.051445        4.033395
 O         1.216628        0.098055        2.703391
3
 generated by VMD
 O         0.449110        1.061970        2.374985
 O         1.096644        0.060456        4.037062
 O         1.201426        0.136936        2.688370
3
 generated by VMD
 O         0.458364        1.070554        2.344262
 O         1.122569        0.067721        4.038386
 O         1.182957        0.174088        2.674431
3
 generated by VMD
 O         0.469094        1.081433        2.312418
 O         1.153181        0.073826        4.033728
 O         1.163714        0.213660        2.663195
3
 generated by VMD
 O         0.481277        1.093395        2.277394
 O         1.183098        0.078745        4.025935
 O         1.145937        0.248776        2.656065
3
 generated by VMD
 O         0.491235        1.108615        2.239285
 O         1.213602        0.084194        4.014864
 O         1.129123        0.284423        2.655636
3
 generated by VMD
 O         0.497575        1.124694        2.198398
 O         1.242773        0.087855        4.002815
 O         1.115704        0.315157        2.658942
3
 generated by VMD
 O         0.500707        1.145021        2.157006
 O         1.275249        0.090539        3.986995
 O         1.109836        0.341199        2.664347
3
 generated by VMD
 O         0.503569        1.167063        2.118559
 O         1.306834        0.094398        3.971184
 O         1.104353        0.359094        2.672083
3
 generated by VMD
 O         0.503552        1.190785        2.082605
 O         1.336775        0.101419        3.953900
 O         1.102388        0.372914        2.679786
3
 generated by VMD
 O         0.501879        1.215277        2.046651
 O         1.363959        0.106302        3.934014
 O         1.104777        0.383796        2.687780
3
 generated by VMD
 O         0.501834        1.239553        2.010182
 O         1.388937        0.113821        3.912010
 O         1.109148        0.390383        2.694760
3
 generated by VMD
 O         0.502185        1.265210        1.975752
 O         1.413870        0.120837        3.891098
 O         1.115577        0.393848        2.692823
3
 generated by VMD
 O         0.503382        1.295368        1.946965
 O         1.434908        0.129175        3.868806
 O         1.121906        0.393344        2.688212
3
 generated by VMD
 O         0.506812        1.325501        1.920375
 O         1.452186        0.139150        3.850236
 O         1.127832        0.391409        2.677944
3
 generated by VMD
 O         0.507545        1.355198        1.895629
 O         1.467602        0.150299        3.834659
 O         1.135365        0.391726        2.662247
3
 generated by VMD
 O         0.512981        1.383174        1.873753
 O         1.480574        0.164820        3.818989
 O         1.143105        0.393788        2.643895
3
 generated by VMD
 O         0.517186        1.412106        1.854832
 O         1.491934        0.182202        3.801063
 O         1.153164        0.394628        2.622944
3
 generated by VMD
 O         0.522616        1.440246        1.841970
 O         1.500973        0.197496        3.781855
 O         1.167017        0.395537        2.598565
3
 generated by VMD
 O         0.527946        1.468522        1.832959
 O         1.508999        0.216273        3.756896
 O         1.181008        0.396581        2.575840
3
 generated by VMD
 O         0.533828        1.494167        1.824809
 O         1.514848        0.235513        3.730225
 O         1.191509        0.398590        2.551591
3
 generated by VMD
 O         0.542959        1.519939        1.819463
 O         1.520828        0.258624        3.701011
 O         1.201263        0.402879        2.527009
3
 generated by VMD
 O         0.553134        1.543498        1.814611
 O         1.524638        0.281741        3.671507
 O         1.209525        0.404732        2.501812
3
 generated by VMD
 O         0.565143        1.564717        1.813135
 O         1.527534        0.306323        3.640659
 O         1.215411        0.407778        2.474737
3
 generated by VMD
 O         0.582169        1.586057        1.812258
 O         1.530595        0.331832        3.608197
 O         1.219555        0.412081        2.446219
3
 generated by VMD
 O         0.601579        1.605186        1.815341
 O         1.530586        0.355909        3.575171
 O         1.223474        0.414762        2.414514
3
 generated by VMD
 O         0.623531        1.622891        1.822626
 O         1.528103        0.377933        3.542379
 O         1.228040        0.419924        2.380148
3
 generated by VMD
 O         0.645637        1.638685        1.828463
 O         1.522741        0.399226        3.508253
 O         1.229490        0.429831        2.341671
3
 generated by VMD
 O         0.665532        1.653847        1.834210
 O         1.517582        0.423340        3.473203
 O         1.229790        0.441252        2.301868
3
 generated by VMD
 O         0.686104        1.667720        1.842564
 O         1.513216        0.447690        3.437139
 O         1.228594        0.457467        2.258666
3
 generated by VMD
 O         0.709304        1.676282        1.851229
 O         1.507655        0.472092        3.399345
 O         1.225865        0.479099        2.215950
3
 generated by VMD
 O         0.733502        1.683434        1.859572
 O         1.504661        0.492468        3.361627
 O         1.222281        0.502043        2.174559
3
 generated by VMD
 O         0.760752        1.685674        1.865556
 O         1.502225        0.512780        3.322865
 O         1.221869        0.530927        2.134794
3
 generated by VMD
 O         0.788620        1.686412        1.868121
 O         1.500443        0.531606        3.286929
 O         1.220062        0.561637        2.096121
3
 generated by VMD
 O         0.815525        1.690724        1.868908
 O         1.503968        0.545170        3.249093
 O         1.218262        0.593804        2.062415
3
 generated by VMD
 O         0.843335        1.695071        1.865748
 O         1.510662        0.554780        3.217892
 O         1.216423        0.628623        2.027972
