5
 generated by VMD
 N         1.406668        0.306477        0.032244
 O         1.396268        1.499080        0.027777
 O         3.211234       -1.724868        3.223881
 H         3.230050       -2.695087        3.245886
 O         0.869997       -0.357124       -0.968037
5
 generated by VMD
 N         1.404256        0.306892        0.027627
 O         1.397236        1.499028        0.028527
 O         3.210262       -1.724644        3.221896
 H         3.231522       -2.697812        3.244698
 O         0.871354       -0.357279       -0.965165
5
 generated by VMD
 N         1.399915        0.308078        0.019287
 O         1.398723        1.498304        0.031221
 O         3.208391       -1.724076        3.218474
 H         3.231318       -2.695309        3.237050
 O         0.873743       -0.356386       -0.958052
5
 generated by VMD
 N         1.392691        0.310400        0.007204
 O         1.401410        1.496414        0.034395
 O         3.205007       -1.721990        3.213219
 H         3.231613       -2.694776        3.228523
 O         0.876298       -0.355231       -0.948369
5
 generated by VMD
 N         1.383265        0.312496       -0.008624
 O         1.405112        1.493217        0.038519
 O         3.199950       -1.720321        3.207443
 H         3.233423       -2.691129        3.216632
 O         0.879743       -0.353404       -0.936585
5
 generated by VMD
 N         1.373096        0.315685       -0.026990
 O         1.408122        1.489115        0.043177
 O         3.194863       -1.717779        3.200693
 H         3.233243       -2.687885        3.203134
 O         0.884260       -0.350804       -0.923268
5
 generated by VMD
 N         1.362690        0.318080       -0.048184
 O         1.411459        1.484805        0.049183
 O         3.188722       -1.713715        3.193825
 H         3.229735       -2.679320        3.186706
 O         0.889052       -0.349012       -0.908001
5
 generated by VMD
 N         1.351556        0.319600       -0.070789
 O         1.414499        1.480089        0.055506
 O         3.180816       -1.709108        3.185890
 H         3.226967       -2.672326        3.166914
 O         0.894666       -0.348575       -0.891435
5
 generated by VMD
 N         1.340108        0.322280       -0.093242
 O         1.417866        1.475646        0.062824
 O         3.171633       -1.702983        3.177451
 H         3.220491       -2.664183        3.140585
 O         0.899996       -0.349459       -0.874208
5
 generated by VMD
 N         1.331088        0.328711       -0.113091
 O         1.420544        1.472954        0.071067
 O         3.159847       -1.695764        3.167839
 H         3.211973       -2.661989        3.110183
 O         0.904273       -0.352192       -0.857972
5
 generated by VMD
 N         1.324087        0.338062       -0.129414
 O         1.423746        1.471797        0.079367
 O         3.147800       -1.688149        3.157699
 H         3.203909       -2.658710        3.081105
 O         0.906967       -0.358900       -0.845274
5
 generated by VMD
 N         1.320257        0.350681       -0.140674
 O         1.426095        1.472294        0.088482
 O         3.134658       -1.679735        3.146053
 H         3.193840       -2.649618        3.049458
 O         0.907661       -0.369159       -0.836388
5
 generated by VMD
 N         1.319298        0.366348       -0.147865
 O         1.428450        1.475122        0.097827
 O         3.119816       -1.671382        3.133847
 H         3.182707       -2.630548        3.021059
 O         0.905335       -0.383578       -0.831597
5
 generated by VMD
 N         1.319833        0.383599       -0.151918
 O         1.430405        1.479253        0.106689
 O         3.104044       -1.663055        3.120092
 H         3.166945       -2.611766        2.987119
 O         0.900412       -0.400885       -0.830646
5
 generated by VMD
 N         1.321987        0.399663       -0.153541
 O         1.432959        1.485274        0.114540
 O         3.087161       -1.654542        3.104350
 H         3.147298       -2.595725        2.950812
 O         0.894093       -0.419757       -0.831619
5
 generated by VMD
 N         1.324904        0.412586       -0.154172
 O         1.433704        1.492570        0.121365
 O         3.069606       -1.645128        3.086711
 H         3.127691       -2.583991        2.918509
 O         0.886754       -0.438794       -0.833773
5
 generated by VMD
 N         1.327686        0.421615       -0.153664
 O         1.434959        1.501945        0.128207
 O         3.050803       -1.634402        3.068436
 H         3.110609       -2.577188        2.884432
 O         0.880079       -0.456776       -0.835953
5
 generated by VMD
 N         1.332465        0.426580       -0.153140
 O         1.435014        1.513175        0.134826
 O         3.030357       -1.623444        3.048685
 H         3.091474       -2.572482        2.846863
 O         0.873599       -0.473307       -0.837710
5
 generated by VMD
 N         1.336838        0.427511       -0.152184
 O         1.434799        1.524813        0.140549
 O         3.008340       -1.612077        3.027540
 H         3.071472       -2.567042        2.806343
 O         0.868084       -0.487519       -0.838616
5
 generated by VMD
 N         1.341174        0.424228       -0.152638
 O         1.434773        1.537869        0.145683
 O         2.984800       -1.599508        3.005562
 H         3.052263       -2.552863        2.766174
 O         0.863970       -0.499919       -0.838352
5
 generated by VMD
 N         1.343446        0.417761       -0.154781
 O         1.433827        1.550136        0.150478
 O         2.959289       -1.586839        2.982415
 H         3.033397       -2.533224        2.724240
 O         0.861589       -0.510562       -0.837200
5
 generated by VMD
 N         1.345537        0.408348       -0.157370
 O         1.431498        1.561102        0.155343
 O         2.933342       -1.574402        2.957530
 H         3.017869       -2.501144        2.685986
 O         0.860542       -0.517713       -0.835162
5
 generated by VMD
 N         1.346899        0.396804       -0.161408
 O         1.427864        1.569727        0.158784
 O         2.905102       -1.561575        2.931445
 H         3.003435       -2.464132        2.648417
 O         0.859418       -0.521578       -0.830976
5
 generated by VMD
 N         1.348076        0.385120       -0.166208
 O         1.423430        1.575065        0.160937
 O         2.876481       -1.547535        2.905105
 H         2.987338       -2.435750        2.611971
 O         0.858993       -0.523207       -0.825389
5
 generated by VMD
 N         1.349424        0.373928       -0.170038
 O         1.418631        1.577628        0.162731
 O         2.846464       -1.531627        2.877339
 H         2.973438       -2.421384        2.565489
 O         0.859801       -0.522024       -0.817506
5
 generated by VMD
 N         1.351041        0.363605       -0.174091
 O         1.413166        1.577087        0.163988
 O         2.814650       -1.514187        2.848235
 H         2.958324       -2.412888        2.512424
 O         0.862139       -0.518129       -0.808152
5
 generated by VMD
 N         1.352736        0.354257       -0.177076
 O         1.407585        1.574244        0.163823
 O         2.782084       -1.496295        2.818486
 H         2.942746       -2.403466        2.456538
 O         0.864551       -0.511767       -0.797921
5
 generated by VMD
 N         1.354941        0.347725       -0.178335
 O         1.400914        1.567146        0.162434
 O         2.749081       -1.478437        2.786676
 H         2.921546       -2.384617        2.401674
 O         0.866675       -0.504205       -0.787899
5
 generated by VMD
 N         1.357868        0.344238       -0.177593
 O         1.394106        1.556600        0.160699
 O         2.716363       -1.460761        2.753417
 H         2.897395       -2.351730        2.348905
 O         0.867669       -0.496374       -0.777478
5
 generated by VMD
 N         1.361017        0.345006       -0.173882
 O         1.386501        1.541850        0.158015
 O         2.682358       -1.443407        2.718916
 H         2.867525       -2.309510        2.300746
 O         0.867255       -0.489440       -0.767514
5
 generated by VMD
 N         1.366398        0.349521       -0.166596
 O         1.377976        1.524066        0.154949
 O         2.646516       -1.425957        2.683753
 H         2.838625       -2.264374        2.252136
 O         0.866157       -0.483291       -0.757907
5
 generated by VMD
 N         1.372749        0.357177       -0.157136
 O         1.370327        1.504592        0.150938
 O         2.608843       -1.408239        2.648304
 H         2.812949       -2.219467        2.200294
 O         0.864444       -0.477943       -0.749097
5
 generated by VMD
 N         1.380375        0.365030       -0.146560
 O         1.363801        1.483861        0.146612
 O         2.570794       -1.389567        2.612075
 H         2.782825       -2.181655        2.145741
 O         0.861608       -0.473383       -0.741176
5
 generated by VMD
 N         1.388343        0.372760       -0.135108
 O         1.357337        1.463702        0.142539
 O         2.531323       -1.370205        2.574571
 H         2.757498       -2.152062        2.085351
 O         0.858838       -0.468360       -0.733649
5
 generated by VMD
 N         1.396874        0.378128       -0.123435
 O         1.351060        1.445566        0.138187
 O         2.491249       -1.349877        2.537939
 H         2.732189       -2.131574        2.017772
 O         0.855219       -0.463354       -0.726779
5
 generated by VMD
 N         1.405799        0.378723       -0.111305
 O         1.344897        1.432538        0.134927
 O         2.451199       -1.328659        2.500304
 H         2.707221       -2.112256        1.951929
 O         0.850383       -0.459191       -0.720787
5
 generated by VMD
 N         1.415488        0.372342       -0.100351
 O         1.339372        1.425481        0.134244
 O         2.409954       -1.307795        2.461205
 H         2.676511       -2.084501        1.890441
 O         0.845406       -0.456160       -0.715013
5
 generated by VMD
 N         1.424789        0.359464       -0.089352
 O         1.334355        1.424656        0.133713
 O         2.367896       -1.285714        2.420457
 H         2.638787       -2.041446        1.839561
 O         0.840690       -0.454064       -0.709976
5
 generated by VMD
 N         1.433453        0.340473       -0.078888
 O         1.329417        1.428519        0.134348
 O         2.325684       -1.263134        2.378719
 H         2.595420       -1.992019        1.791669
 O         0.836325       -0.452586       -0.704713
5
 generated by VMD
 N         1.441364        0.317876       -0.069114
 O         1.324938        1.435557        0.135618
 O         2.282629       -1.239612        2.335963
 H         2.549443       -1.938995        1.747952
 O         0.832971       -0.452273       -0.700132
5
 generated by VMD
 N         1.448982        0.294503       -0.058688
 O         1.321217        1.444134        0.137883
 O         2.239137       -1.214429        2.292590
 H         2.503363       -1.892135        1.700122
 O         0.829957       -0.452334       -0.695702
5
 generated by VMD
 N         1.455465        0.272472       -0.048243
 O         1.318538        1.452636        0.140813
 O         2.194775       -1.187373        2.249113
 H         2.460526       -1.857286        1.643217
 O         0.827218       -0.452388       -0.690862
5
 generated by VMD
 N         1.460111        0.252336       -0.036328
 O         1.317361        1.459934        0.144349
 O         2.149851       -1.160009        2.206113
 H         2.425181       -1.833249        1.577269
 O         0.824823       -0.453376       -0.687024
5
 generated by VMD
 N         1.463779        0.234336       -0.023685
 O         1.316204        1.464515        0.148104
 O         2.104832       -1.131195        2.163014
 H         2.390473       -1.818918        1.510529
 O         0.823041       -0.456045       -0.683675
5
 generated by VMD
 N         1.465296        0.219673       -0.010787
 O         1.316942        1.467858        0.152382
 O         2.060815       -1.102443        2.117712
 H         2.352288       -1.800172        1.449587
 O         0.821902       -0.460722       -0.680976
5
 generated by VMD
 N         1.466129        0.209146        0.002489
 O         1.318608        1.467007        0.156723
 O         2.017136       -1.075323        2.070891
 H         2.306053       -1.771974        1.401642
 O         0.821392       -0.466842       -0.678540
5
 generated by VMD
 N         1.464791        0.201776        0.015274
 O         1.321476        1.462893        0.161779
 O         1.974253       -1.048141        2.022181
 H         2.254653       -1.732974        1.367963
 O         0.822349       -0.472723       -0.676247
5
 generated by VMD
 N         1.462128        0.197391        0.028476
 O         1.325770        1.456050        0.166454
 O         1.931526       -1.020154        1.971060
 H         2.205180       -1.692143        1.338618
 O         0.824236       -0.479372       -0.673148
5
 generated by VMD
 N         1.457215        0.196814        0.042386
 O         1.330908        1.445922        0.170980
 O         1.889220       -0.990278        1.919272
 H         2.159028       -1.652470        1.307208
 O         0.827141       -0.486792       -0.670390
5
 generated by VMD
 N         1.450121        0.198754        0.056983
 O         1.337632        1.432940        0.175090
 O         1.845998       -0.960967        1.866533
 H         2.115367       -1.628280        1.266337
 O         0.831553       -0.493917       -0.666975
5
 generated by VMD
 N         1.440024        0.203318        0.071400
 O         1.345560        1.418171        0.180017
 O         1.802229       -0.930608        1.812934
 H         2.082289       -1.618238        1.217618
 O         0.837220       -0.500207       -0.662892
5
 generated by VMD
 N         1.427576        0.210594        0.086458
 O         1.354519        1.401377        0.186668
 O         1.758024       -0.899763        1.759573
 H         2.057180       -1.616380        1.166191
 O         0.844315       -0.505461       -0.658799
5
 generated by VMD
 N         1.413193        0.218096        0.101176
 O         1.364662        1.382971        0.193795
 O         1.712641       -0.869104        1.704539
 H         2.030547       -1.611403        1.116778
 O         0.851608       -0.511376       -0.654193
5
 generated by VMD
 N         1.395985        0.225396        0.117766
 O         1.375055        1.364327        0.201587
 O         1.668127       -0.837987        1.647851
 H         2.002957       -1.600893        1.071882
 O         0.859277       -0.517341       -0.648848
5
 generated by VMD
 N         1.376617        0.230216        0.134963
 O         1.386836        1.347063        0.210218
 O         1.625092       -0.805770        1.590833
 H         1.968899       -1.575179        1.040727
 O         0.868698       -0.522503       -0.643977
5
 generated by VMD
 N         1.355294        0.229172        0.152240
 O         1.400372        1.332401        0.219800
 O         1.583129       -0.773938        1.532877
 H         1.926448       -1.535663        1.019140
 O         0.879161       -0.527912       -0.638986
5
 generated by VMD
 N         1.333700        0.221815        0.170431
 O         1.414988        1.322034        0.229824
 O         1.541326       -0.740805        1.474866
 H         1.882050       -1.489771        1.001426
 O         0.890467       -0.532347       -0.633285
5
 generated by VMD
 N         1.310198        0.209167        0.188857
 O         1.431006        1.315740        0.241068
 O         1.499554       -0.705823        1.416995
 H         1.836671       -1.453053        0.981030
 O         0.901590       -0.536494       -0.629690
5
 generated by VMD
 N         1.285751        0.191273        0.208017
 O         1.447448        1.312480        0.252668
 O         1.457177       -0.667851        1.359876
 H         1.796893       -1.435549        0.951021
 O         0.913402       -0.540752       -0.628264
5
 generated by VMD
 N         1.261186        0.169916        0.228786
 O         1.463627        1.311600        0.264262
 O         1.415706       -0.627978        1.304903
 H         1.759980       -1.435824        0.916641
 O         0.924840       -0.546464       -0.628815
5
 generated by VMD
 N         1.236920        0.147361        0.250046
 O         1.480031        1.313117        0.275605
 O         1.375448       -0.588095        1.251990
 H         1.721964       -1.439279        0.880015
 O         0.935635       -0.551769       -0.633209
5
 generated by VMD
 N         1.212192        0.126300        0.269737
 O         1.495785        1.315075        0.287397
 O         1.336279       -0.549297        1.204107
 H         1.673804       -1.435455        0.853650
 O         0.945657       -0.557217       -0.641508
5
 generated by VMD
 N         1.188698        0.110909        0.283334
 O         1.511643        1.316014        0.299071
 O         1.299092       -0.515895        1.165147
 H         1.614035       -1.417376        0.831410
 O         0.955493       -0.562256       -0.652752
5
 generated by VMD
 N         1.166284        0.104175        0.285696
 O         1.526061        1.316923        0.311249
 O         1.265543       -0.489578        1.139057
 H         1.541555       -1.391541        0.814734
 O         0.963858       -0.568483       -0.667483
5
 generated by VMD
 N         1.144255        0.110777        0.272930
 O         1.537278        1.316706        0.323238
 O         1.235214       -0.473026        1.130730
 H         1.457672       -1.362316        0.808103
 O         0.970522       -0.573514       -0.686392
5
 generated by VMD
 N         1.122911        0.130813        0.244351
 O         1.546977        1.316643        0.334962
 O         1.206537       -0.466073        1.140384
 H         1.371456       -1.346439        0.808893
 O         0.974970       -0.578002       -0.708663
5
 generated by VMD
 N         1.103533        0.159738        0.203730
 O         1.555234        1.315758        0.345187
 O         1.180346       -0.466358        1.163192
 H         1.279549       -1.346703        0.819970
 O         0.978193       -0.582658       -0.734300
5
 generated by VMD
 N         1.086778        0.193105        0.156578
 O         1.561649        1.314565        0.353858
 O         1.154917       -0.469053        1.195646
 H         1.187138       -1.361948        0.832626
 O         0.981445       -0.587150       -0.761543
5
 generated by VMD
 N         1.074352        0.227220        0.109144
 O         1.566796        1.311854        0.360847
 O         1.128759       -0.473723        1.231918
 H         1.090680       -1.380853        0.849979
 O         0.984398       -0.590388       -0.790530
5
 generated by VMD
 N         1.065543        0.259444        0.063312
 O         1.568449        1.309265        0.365605
 O         1.101410       -0.479309        1.269056
 H         0.994515       -1.396225        0.874557
 O         0.985651       -0.592043       -0.821056
5
 generated by VMD
 N         1.059564        0.288815        0.021297
 O         1.569855        1.307780        0.368767
 O         1.073624       -0.485461        1.305637
 H         0.897694       -1.399332        0.908976
 O         0.985973       -0.591289       -0.851787
5
 generated by VMD
 N         1.056710        0.314301       -0.016923
 O         1.569738        1.306715        0.369955
 O         1.045454       -0.492370        1.340946
 H         0.802701       -1.391884        0.951840
 O         0.986455       -0.587201       -0.881598
5
 generated by VMD
 N         1.055507        0.335045       -0.052495
 O         1.568864        1.306311        0.368542
 O         1.016526       -0.499958        1.375258
 H         0.710207       -1.367486        1.006334
 O         0.986958       -0.580400       -0.911814
5
 generated by VMD
 N         1.056224        0.351979       -0.084791
 O         1.566672        1.306652        0.364664
 O         0.987605       -0.508179        1.407557
 H         0.618562       -1.336769        1.067463
 O         0.987604       -0.571124       -0.941782
5
 generated by VMD
 N         1.058769        0.364632       -0.114879
 O         1.564958        1.307403        0.358563
 O         0.958681       -0.515482        1.439647
 H         0.530110       -1.309370        1.133911
 O         0.988967       -0.558897       -0.971231
5
 generated by VMD
 N         1.061896        0.372842       -0.141358
 O         1.563432        1.308765        0.350686
 O         0.929424       -0.521214        1.470647
 H         0.438661       -1.289681        1.199365
 O         0.990427       -0.543030       -0.999785
5
 generated by VMD
 N         1.065020        0.377680       -0.165335
 O         1.561636        1.310579        0.340553
 O         0.899804       -0.526218        1.501103
 H         0.345161       -1.273344        1.267928
 O         0.991200       -0.523214       -1.027253
5
 generated by VMD
 N         1.069236        0.378588       -0.185721
 O         1.558431        1.312921        0.328419
 O         0.869731       -0.529740        1.529733
 H         0.250482       -1.255929        1.337164
 O         0.991658       -0.499689       -1.052575
5
 generated by VMD
 N         1.074201        0.375696       -0.203470
 O         1.553187        1.315175        0.314152
 O         0.840033       -0.533026        1.557949
 H         0.161562       -1.238085        1.412465
 O         0.992853       -0.472169       -1.075127
5
 generated by VMD
 N         1.079179        0.369502       -0.218415
 O         1.547311        1.317147        0.296613
 O         0.809133       -0.536087        1.584365
 H         0.079179       -1.214597        1.491225
 O         0.994522       -0.443543       -1.096176
5
 generated by VMD
 N         1.085519        0.359855       -0.230879
 O         1.541770        1.319198        0.276578
 O         0.778269       -0.539150        1.608645
 H         0.010824       -1.181894        1.571458
 O         0.997083       -0.413471       -1.115096
5
 generated by VMD
 N         1.092948        0.348505       -0.239355
 O         1.535503        1.320846        0.255283
 O         0.746635       -0.542589        1.630746
 H        -0.047368       -1.139000        1.646510
 O         0.999742       -0.382660       -1.133458
5
 generated by VMD
 N         1.100256        0.337253       -0.243803
 O         1.528450        1.321341        0.232437
 O         0.713876       -0.546329        1.651767
 H        -0.098993       -1.086793        1.717558
 O         1.002591       -0.350940       -1.152471
5
 generated by VMD
 N         1.107124        0.325108       -0.244263
 O         1.520985        1.320845        0.208643
 O         0.681254       -0.550565        1.671510
 H        -0.143649       -1.025843        1.785914
 O         1.006351       -0.320085       -1.172290
5
 generated by VMD
 N         1.113629        0.313955       -0.240217
 O         1.513056        1.320212        0.184134
 O         0.649126       -0.554591        1.689979
 H        -0.191738       -0.961561        1.853249
 O         1.010338       -0.288946       -1.193032
5
 generated by VMD
 N         1.120186        0.302723       -0.233339
 O         1.504888        1.318192        0.159690
 O         0.617248       -0.558594        1.706773
 H        -0.246764       -0.902410        1.916495
 O         1.013950       -0.260255       -1.215423
5
 generated by VMD
 N         1.125679        0.292675       -0.224541
 O         1.495941        1.316064        0.135790
 O         0.586311       -0.562760        1.722804
 H        -0.312231       -0.845645        1.974253
 O         1.016827       -0.232659       -1.238148
5
 generated by VMD
 N         1.130229        0.282743       -0.214169
 O         1.488015        1.314139        0.112343
 O         0.554717       -0.566860        1.737455
 H        -0.376270       -0.784751        2.023634
 O         1.019093       -0.206835       -1.260279
5
 generated by VMD
 N         1.133224        0.272840       -0.204347
 O         1.481355        1.313455        0.091326
 O         0.523340       -0.570016        1.750843
 H        -0.428208       -0.721067        2.060928
 O         1.020794       -0.181972       -1.282403
5
 generated by VMD
 N         1.135122        0.262597       -0.195562
 O         1.475631        1.313618        0.072437
 O         0.492355       -0.572010        1.762980
 H        -0.463524       -0.655953        2.085461
 O         1.022307       -0.158937       -1.304012
5
 generated by VMD
 N         1.135790        0.251434       -0.188747
 O         1.469605        1.314985        0.055962
 O         0.461296       -0.573774        1.774469
 H        -0.486372       -0.586812        2.095301
 O         1.023616       -0.136760       -1.324408
5
 generated by VMD
 N         1.135116        0.240629       -0.185321
 O         1.464332        1.318102        0.042371
 O         0.431330       -0.575752        1.786577
 H        -0.501334       -0.520099        2.094286
 O         1.025104       -0.116434       -1.343314
5
 generated by VMD
 N         1.134232        0.231652       -0.185204
 O         1.459436        1.321944        0.031440
 O         0.401101       -0.578115        1.797668
 H        -0.512093       -0.451795        2.083727
 O         1.026411       -0.097787       -1.361646
5
 generated by VMD
 N         1.131447        0.224379       -0.187460
 O         1.454128        1.326335        0.022504
 O         0.371935       -0.581001        1.808600
 H        -0.530125       -0.379367        2.066729
 O         1.027613       -0.080160       -1.379160
5
 generated by VMD
 N         1.129078        0.219508       -0.192897
 O         1.449015        1.331442        0.016593
 O         0.344002       -0.584713        1.818714
 H        -0.554144       -0.305632        2.045715
 O         1.028585       -0.064029       -1.394317
5
 generated by VMD
 N         1.125749        0.217572       -0.201260
 O         1.444350        1.335893        0.012863
 O         0.317285       -0.588363        1.827901
 H        -0.581547       -0.230043        2.019380
 O         1.029051       -0.049542       -1.407829
5
 generated by VMD
 N         1.122275        0.218883       -0.212724
 O         1.439396        1.340320        0.011346
 O         0.290006       -0.590568        1.836381
 H        -0.604770       -0.153784        1.983892
 O         1.028581       -0.037669       -1.418768
5
 generated by VMD
 N         1.118336        0.222829       -0.227830
 O         1.433638        1.343578        0.011819
 O         0.262141       -0.592486        1.844719
 H        -0.618695       -0.081750        1.937651
 O         1.029277       -0.027401       -1.428265
5
 generated by VMD
 N         1.115278        0.229504       -0.245699
 O         1.428477        1.345268        0.013680
 O         0.234519       -0.593035        1.851467
 H        -0.616328       -0.023315        1.886660
 O         1.029657       -0.019486       -1.436144
5
 generated by VMD
 N         1.112311        0.240140       -0.266397
 O         1.423320        1.347416        0.017119
 O         0.207073       -0.592670        1.857286
 H        -0.595788        0.021132        1.834206
 O         1.028594       -0.014109       -1.442861
5
 generated by VMD
 N         1.109932        0.253833       -0.288700
 O         1.418757        1.348938        0.023216
 O         0.178864       -0.591996        1.862774
 H        -0.559321        0.054777        1.782344
 O         1.027352       -0.011248       -1.447756
5
 generated by VMD
 N         1.107005        0.270368       -0.312471
 O         1.414107        1.349988        0.030471
 O         0.151651       -0.591341        1.867513
 H        -0.518508        0.083484        1.730952
 O         1.024950       -0.009658       -1.452560
5
 generated by VMD
 N         1.103998        0.288411       -0.336228
 O         1.409909        1.351394        0.039111
 O         0.123778       -0.591370        1.871086
 H        -0.480900        0.117125        1.679091
 O         1.022090       -0.010174       -1.457483
5
 generated by VMD
 N         1.102205        0.307082       -0.360013
 O         1.407202        1.353035        0.049439
 O         0.097013       -0.591355        1.874747
 H        -0.446313        0.157850        1.626027
 O         1.019258       -0.012723       -1.462573
5
 generated by VMD
 N         1.100110        0.327334       -0.382595
 O         1.404897        1.355832        0.059901
 O         0.070319       -0.592345        1.878304
 H        -0.416085        0.201860        1.571407
 O         1.016363       -0.016551       -1.467910
5
 generated by VMD
 N         1.096759        0.348158       -0.402697
 O         1.403878        1.359841        0.071464
 O         0.043874       -0.593974        1.880933
 H        -0.386218        0.238213        1.525496
 O         1.013862       -0.022175       -1.474784
5
 generated by VMD
 N         1.091998        0.368825       -0.419445
 O         1.402289        1.363998        0.082430
 O         0.017514       -0.595468        1.881197
 H        -0.355069        0.258552        1.490179
 O         1.011662       -0.029401       -1.483437
5
 generated by VMD
 N         1.086245        0.388687       -0.434338
 O         1.400928        1.369076        0.093875
 O        -0.009212       -0.595969        1.879701
 H        -0.320435        0.264271        1.466949
 O         1.010075       -0.038664       -1.493774
5
 generated by VMD
 N         1.080537        0.408707       -0.446626
 O         1.400092        1.374760        0.106029
 O        -0.036039       -0.595181        1.877666
 H        -0.284012        0.257099        1.458517
 O         1.007414       -0.048210       -1.505294
5
 generated by VMD
 N         1.073075        0.427500       -0.458239
 O         1.399957        1.380016        0.117911
 O        -0.063126       -0.594387        1.874476
 H        -0.248815        0.246998        1.459815
 O         1.004026       -0.057487       -1.517222
5
 generated by VMD
 N         1.064808        0.444746       -0.469699
 O         1.399441        1.384359        0.129388
 O        -0.089805       -0.593344        1.870660
 H        -0.219589        0.238857        1.464179
 O         1.000066       -0.066662       -1.528615
5
 generated by VMD
 N         1.055057        0.461161       -0.481139
 O         1.399995        1.389110        0.139645
 O        -0.115228       -0.592225        1.866656
 H        -0.191724        0.244707        1.459812
 O         0.996073       -0.074794       -1.540569
5
 generated by VMD
 N         1.044903        0.476398       -0.492563
 O         1.400872        1.394125        0.148956
 O        -0.139586       -0.591205        1.861432
 H        -0.166772        0.268449        1.454523
 O         0.991857       -0.081495       -1.550892
5
 generated by VMD
 N         1.034497        0.490028       -0.502998
 O         1.402228        1.398756        0.155893
 O        -0.162917       -0.590664        1.856245
 H        -0.139134        0.299381        1.448955
 O         0.987289       -0.087610       -1.559991
5
 generated by VMD
 N         1.023613        0.503450       -0.512811
 O         1.403214        1.403442        0.161120
 O        -0.185286       -0.589878        1.850541
 H        -0.111980        0.327816        1.450043
 O         0.984101       -0.091322       -1.567065
5
 generated by VMD
 N         1.012508        0.514792       -0.521528
 O         1.404937        1.407829        0.165186
 O        -0.207266       -0.587535        1.843239
 H        -0.083701        0.345719        1.460647
 O         0.981122       -0.093704       -1.572227
5
 generated by VMD
 N         0.999857        0.523791       -0.530125
 O         1.407323        1.412235        0.168339
 O        -0.229239       -0.584047        1.834658
 H        -0.061301        0.343656        1.486606
 O         0.979236       -0.094470       -1.575869
5
 generated by VMD
 N         0.986597        0.532292       -0.538113
 O         1.409714        1.416077        0.169279
 O        -0.251134       -0.578276        1.826400
 H        -0.045568        0.327923        1.523022
 O         0.977076       -0.093695       -1.576983
5
 generated by VMD
 N         0.973390        0.539346       -0.544840
 O         1.411593        1.418921        0.167408
 O        -0.272561       -0.571823        1.817050
 H        -0.037922        0.305763        1.566312
 O         0.976173       -0.091201       -1.576723
5
 generated by VMD
 N         0.959177        0.545868       -0.551208
 O         1.411872        1.419804        0.162681
 O        -0.293978       -0.565314        1.807294
 H        -0.030010        0.298224        1.606516
 O         0.975869       -0.086737       -1.574857
5
 generated by VMD
 N         0.946076        0.552930       -0.556512
 O         1.412101        1.419348        0.156672
 O        -0.315223       -0.559772        1.796983
 H        -0.017720        0.315265        1.647837
 O         0.975921       -0.079952       -1.571133
5
 generated by VMD
 N         0.934003        0.559007       -0.561026
 O         1.411907        1.418021        0.149448
 O        -0.337199       -0.555247        1.785576
 H        -0.005957        0.345831        1.687873
 O         0.976871       -0.071843       -1.565601
5
 generated by VMD
 N         0.922656        0.564555       -0.564134
 O         1.411377        1.415549        0.139396
 O        -0.359386       -0.550277        1.772479
 H         0.003714        0.378143        1.731128
 O         0.977681       -0.063121       -1.558624
5
 generated by VMD
 N         0.910919        0.569977       -0.565134
 O         1.410033        1.411847        0.128319
 O        -0.381008       -0.543682        1.758774
 H         0.007333        0.394638        1.776198
 O         0.978917       -0.052651       -1.551157
5
 generated by VMD
 N         0.899196        0.574782       -0.564076
 O         1.410080        1.407837        0.115185
 O        -0.402319       -0.535292        1.744197
 H         0.001476        0.392672        1.821034
 O         0.981339       -0.040929       -1.542222
5
 generated by VMD
 N         0.887966        0.579220       -0.560414
 O         1.410435        1.402944        0.102220
 O        -0.422576       -0.525192        1.728715
 H        -0.014665        0.370902        1.867762
 O         0.984795       -0.029413       -1.532457
5
 generated by VMD
 N         0.876087        0.582924       -0.554831
 O         1.411276        1.397845        0.088217
 O        -0.442625       -0.513742        1.711992
 H        -0.035281        0.338885        1.913481
 O         0.987991       -0.017711       -1.522280
5
 generated by VMD
 N         0.863292        0.586270       -0.547720
 O         1.412255        1.392189        0.073887
 O        -0.461728       -0.502024        1.694847
 H        -0.056239        0.311812        1.963131
 O         0.990701       -0.006668       -1.513395
5
 generated by VMD
 N         0.850288        0.588148       -0.539376
 O         1.413937        1.387284        0.059605
 O        -0.481169       -0.491030        1.676807
 H        -0.073542        0.293486        2.018332
 O         0.992105        0.003261       -1.505528
5
 generated by VMD
 N         0.837424        0.589012       -0.529260
 O         1.415655        1.383381        0.045060
 O        -0.500903       -0.480343        1.657503
 H        -0.082823        0.283810        2.079167
 O         0.993123        0.012007       -1.499407
5
 generated by VMD
 N         0.825013        0.590218       -0.516727
 O         1.417529        1.381215        0.033059
 O        -0.519368       -0.471045        1.637951
 H        -0.092277        0.275282        2.137748
 O         0.994181        0.019262       -1.494542
5
 generated by VMD
 N         0.813013        0.591613       -0.503467
 O         1.418704        1.381276        0.023029
 O        -0.536934       -0.460677        1.618000
 H        -0.104887        0.258023        2.196251
 O         0.994614        0.025271       -1.490451
5
 generated by VMD
 N         0.801570        0.592070       -0.489673
 O         1.419967        1.383410        0.014070
 O        -0.553238       -0.448949        1.597947
 H        -0.125435        0.227591        2.243484
 O         0.994683        0.030073       -1.488119
5
 generated by VMD
 N         0.790259        0.592252       -0.477464
 O         1.422520        1.388431        0.007365
 O        -0.567344       -0.436361        1.577975
 H        -0.153590        0.185125        2.271291
 O         0.993141        0.033630       -1.486130
5
 generated by VMD
 N         0.778987        0.591085       -0.465781
 O         1.425099        1.394330        0.002970
 O        -0.580458       -0.422770        1.558398
 H        -0.193377        0.130405        2.284211
 O         0.991340        0.035830       -1.485688
5
 generated by VMD
 N         0.768242        0.588212       -0.455159
 O         1.426841        1.402123        0.000471
 O        -0.593079       -0.409430        1.539155
 H        -0.234770        0.072995        2.289999
 O         0.987935        0.037692       -1.484536
5
 generated by VMD
 N         0.758361        0.585098       -0.446290
 O         1.428260        1.411883        0.001056
 O        -0.606047       -0.396375        1.519376
 H        -0.274615        0.013610        2.298497
 O         0.983642        0.039051       -1.483856
5
 generated by VMD
 N         0.749698        0.580113       -0.439484
 O         1.429650        1.421821        0.003732
 O        -0.618903       -0.383762        1.497733
 H        -0.306078       -0.032558        2.317397
 O         0.976582        0.039542       -1.482383
5
 generated by VMD
 N         0.742051        0.574939       -0.433771
 O         1.429467        1.432414        0.007254
 O        -0.632375       -0.371622        1.475426
 H        -0.330242       -0.067737        2.343106
 O         0.968038        0.039477       -1.479523
5
 generated by VMD
 N         0.736027        0.570329       -0.429410
 O         1.427979        1.443557        0.012010
 O        -0.645669       -0.359219        1.452579
 H        -0.350301       -0.093957        2.364996
 O         0.958341        0.038932       -1.476155
5
 generated by VMD
 N         0.731839        0.566492       -0.425325
 O         1.425640        1.454999        0.017235
 O        -0.657691       -0.345544        1.429722
 H        -0.370494       -0.117659        2.373743
 O         0.947963        0.038783       -1.470850
5
 generated by VMD
 N         0.730683        0.563159       -0.422698
 O         1.421419        1.466364        0.023369
 O        -0.669975       -0.331915        1.407132
 H        -0.391618       -0.136103        2.363632
 O         0.936899        0.039631       -1.464636
5
 generated by VMD
 N         0.732239        0.561232       -0.420017
 O         1.415777        1.476873        0.028889
 O        -0.682272       -0.317305        1.385281
 H        -0.411823       -0.152535        2.336066
 O         0.925083        0.040165       -1.457032
5
 generated by VMD
 N         0.736338        0.561060       -0.417258
 O         1.409292        1.487098        0.035055
 O        -0.693965       -0.302299        1.363739
 H        -0.427567       -0.168178        2.294876
 O         0.911841        0.040586       -1.448038
5
 generated by VMD
 N         0.743317        0.562578       -0.414795
 O         1.401448        1.496763        0.040157
 O        -0.705995       -0.288493        1.342620
 H        -0.439085       -0.183027        2.246500
 O         0.897782        0.041240       -1.438782
5
 generated by VMD
 N         0.753510        0.566128       -0.410669
 O         1.392078        1.504783        0.045996
 O        -0.717706       -0.275741        1.319596
 H        -0.439705       -0.193479        2.205077
 O         0.882612        0.040791       -1.429050
5
 generated by VMD
 N         0.766162        0.572463       -0.406177
 O         1.381610        1.511442        0.051395
 O        -0.730449       -0.263331        1.294372
 H        -0.425262       -0.197012        2.183205
 O         0.867395        0.039444       -1.420132
5
 generated by VMD
 N         0.780374        0.579875       -0.401070
 O         1.370356        1.518786        0.057311
 O        -0.743671       -0.250906        1.268737
 H        -0.397365       -0.197885        2.166264
 O         0.852337        0.037215       -1.412102
5
 generated by VMD
 N         0.795344        0.589099       -0.394123
 O         1.357910        1.524862        0.064117
 O        -0.755455       -0.238033        1.241233
 H        -0.364007       -0.195482        2.151452
 O         0.836624        0.033493       -1.404398
5
 generated by VMD
 N         0.810192        0.598407       -0.386142
 O         1.344959        1.530815        0.070889
 O        -0.766569       -0.224414        1.212328
 H        -0.330236       -0.193238        2.128392
 O         0.820624        0.030096       -1.397881
5
 generated by VMD
 N         0.823617        0.607877       -0.378165
 O         1.332060        1.536339        0.076669
 O        -0.776673       -0.210852        1.183805
 H        -0.298978       -0.186026        2.090027
 O         0.804802        0.026288       -1.392652
5
 generated by VMD
 N         0.836130        0.615830       -0.369130
 O         1.320112        1.542895        0.082474
 O        -0.784901       -0.196386        1.157208
 H        -0.278134       -0.175293        2.030143
 O         0.787796        0.022405       -1.385690
5
 generated by VMD
 N         0.846645        0.622485       -0.361620
 O         1.310008        1.549868        0.087754
 O        -0.791844       -0.182608        1.131189
 H        -0.266061       -0.163185        1.956941
 O         0.772068        0.019426       -1.377539
5
 generated by VMD
 N         0.855188        0.626328       -0.354916
 O         1.301136        1.556540        0.093588
 O        -0.798137       -0.168452        1.105821
 H        -0.253399       -0.150635        1.878368
 O         0.756613        0.016731       -1.368661
5
 generated by VMD
 N         0.861816        0.627499       -0.348972
 O         1.293841        1.563403        0.100642
 O        -0.804269       -0.153581        1.079182
 H        -0.232951       -0.136324        1.803323
 O         0.740491        0.015356       -1.359309
5
 generated by VMD
 N         0.865714        0.625792       -0.343696
 O         1.287276        1.571630        0.107423
 O        -0.808969       -0.139034        1.049226
 H        -0.201560       -0.119510        1.749669
 O         0.725507        0.015533       -1.348865
5
 generated by VMD
 N         0.866765        0.622434       -0.339526
 O         1.282008        1.581535        0.114294
 O        -0.813096       -0.124127        1.017077
 H        -0.158577       -0.105393        1.711194
 O         0.710870        0.015820       -1.338283
5
 generated by VMD
 N         0.864170        0.617294       -0.336478
 O         1.277097        1.592296        0.121404
 O        -0.815522       -0.108629        0.984030
 H        -0.117918       -0.093117        1.683691
 O         0.697880        0.017727       -1.326165
5
 generated by VMD
 N         0.859108        0.610741       -0.332947
 O         1.273098        1.602376        0.127576
 O        -0.816233       -0.093899        0.950866
 H        -0.088751       -0.086016        1.654732
 O         0.685329        0.020524       -1.314141
5
 generated by VMD
 N         0.851681        0.604733       -0.327915
 O         1.269780        1.611767        0.134061
 O        -0.814899       -0.079407        0.917156
 H        -0.080358       -0.082859        1.615775
 O         0.675029        0.022895       -1.301958
5
 generated by VMD
 N         0.842407        0.600063       -0.322678
 O         1.266155        1.619714        0.140534
 O        -0.810254       -0.063867        0.884962
 H        -0.087854       -0.079044        1.567358
 O         0.665334        0.026569       -1.289319
5
 generated by VMD
 N         0.830949        0.597545       -0.314859
 O         1.262029        1.625798        0.147071
 O        -0.803217       -0.046629        0.852424
 H        -0.108704       -0.075427        1.519698
 O         0.656925        0.030487       -1.276833
5
 generated by VMD
 N         0.817542        0.597819       -0.304355
 O         1.256771        1.630514        0.154027
 O        -0.793824       -0.029124        0.818447
 H        -0.132443       -0.074974        1.478611
 O         0.649152        0.033636       -1.266174
5
 generated by VMD
 N         0.800769        0.600818       -0.290974
 O         1.250366        1.633641        0.158370
 O        -0.783712       -0.011380        0.782890
 H        -0.146846       -0.076998        1.455887
 O         0.642154        0.035432       -1.256877
5
 generated by VMD
 N         0.781823        0.606095       -0.274817
 O         1.243932        1.633615        0.160430
 O        -0.773043        0.007243        0.746136
 H        -0.151997       -0.083115        1.454100
 O         0.635926        0.036558       -1.248898
5
 generated by VMD
 N         0.761572        0.613168       -0.257413
 O         1.236202        1.631685        0.162158
 O        -0.760389        0.025803        0.708754
 H        -0.154340       -0.091153        1.463359
 O         0.630264        0.036571       -1.242580
5
 generated by VMD
 N         0.738231        0.621893       -0.238634
 O         1.229158        1.628515        0.162615
 O        -0.745091        0.044186        0.672721
 H        -0.167278       -0.104995        1.470371
 O         0.624982        0.036621       -1.236514
5
 generated by VMD
 N         0.711886        0.632071       -0.220449
 O         1.221831        1.624457        0.162112
 O        -0.727602        0.062753        0.637825
 H        -0.197544       -0.115300        1.467504
 O         0.621396        0.036872       -1.230793
5
 generated by VMD
 N         0.682619        0.642863       -0.203059
 O         1.215124        1.619578        0.162080
 O        -0.707387        0.081518        0.603386
 H        -0.244370       -0.123058        1.456856
 O         0.617502        0.037900       -1.224688
5
 generated by VMD
 N         0.650425        0.652415       -0.187524
 O         1.209582        1.614460        0.162010
 O        -0.684202        0.100730        0.570469
 H        -0.296027       -0.129992        1.441518
 O         0.615035        0.039225       -1.217463
5
 generated by VMD
 N         0.615371        0.659553       -0.175074
 O         1.203387        1.609076        0.163436
 O        -0.659369        0.119386        0.538671
 H        -0.353300       -0.130915        1.424101
 O         0.613846        0.040169       -1.210260
5
 generated by VMD
 N         0.579076        0.665961       -0.163211
 O         1.197302        1.603498        0.165227
 O        -0.632822        0.138001        0.507057
 H        -0.408571       -0.126558        1.410601
 O         0.612365        0.042486       -1.202448
5
 generated by VMD
 N         0.541639        0.670327       -0.153099
 O         1.190806        1.598936        0.167178
 O        -0.605661        0.155838        0.476258
 H        -0.458151       -0.116551        1.396564
 O         0.612254        0.044606       -1.194645
5
 generated by VMD
 N         0.504780        0.672060       -0.144236
 O         1.183994        1.594574        0.169529
 O        -0.578742        0.173986        0.445705
 H        -0.501320       -0.100689        1.384541
 O         0.613035        0.047431       -1.186332
5
 generated by VMD
 N         0.469060        0.672686       -0.138551
 O         1.176261        1.590471        0.173996
 O        -0.554011        0.191941        0.417698
 H        -0.537315       -0.078842        1.368936
 O         0.614372        0.050039       -1.178764
5
 generated by VMD
 N         0.436103        0.672340       -0.135677
 O         1.168790        1.585260        0.178506
 O        -0.531720        0.208655        0.391911
 H        -0.568317       -0.043200        1.341048
 O         0.616556        0.053214       -1.171705
5
 generated by VMD
 N         0.409620        0.672016       -0.138157
 O         1.160059        1.579344        0.183618
 O        -0.514791        0.223094        0.369756
 H        -0.591541        0.001019        1.311553
 O         0.618906        0.056066       -1.164566
5
 generated by VMD
 N         0.392538        0.673379       -0.146222
 O         1.150248        1.574395        0.190111
 O        -0.504670        0.235104        0.353370
 H        -0.607917        0.056157        1.293327
 O         0.621141        0.058340       -1.158618
5
 generated by VMD
 N         0.386211        0.678570       -0.159664
 O         1.138836        1.570110        0.196768
 O        -0.503363        0.243637        0.342887
 H        -0.615691        0.120670        1.280056
 O         0.623824        0.060341       -1.153955
5
 generated by VMD
 N         0.390745        0.687100       -0.179631
 O         1.126568        1.566110        0.204042
 O        -0.512492        0.247908        0.338024
 H        -0.616960        0.195226        1.275119
 O         0.626704        0.061356       -1.152605
5
 generated by VMD
 N         0.405227        0.698699       -0.203502
 O         1.113112        1.563195        0.211705
 O        -0.530488        0.248589        0.338522
 H        -0.612149        0.276422        1.281862
 O         0.630264        0.061580       -1.154209
5
 generated by VMD
 N         0.425316        0.712524       -0.229631
 O         1.099490        1.561158        0.220045
 O        -0.555501        0.246201        0.343423
 H        -0.604424        0.371067        1.299935
 O         0.634923        0.060909       -1.158488
5
 generated by VMD
 N         0.448626        0.725394       -0.256391
 O         1.086881        1.560368        0.227781
 O        -0.583621        0.240951        0.351205
 H        -0.592755        0.475249        1.315556
 O         0.639340        0.058549       -1.164644
5
 generated by VMD
 N         0.471876        0.737739       -0.282653
 O         1.075259        1.560872        0.235813
 O        -0.614760        0.236174        0.361253
 H        -0.578095        0.580351        1.321333
 O         0.646128        0.054707       -1.174175
5
 generated by VMD
 N         0.492641        0.748215       -0.306703
 O         1.065948        1.563763        0.244847
 O        -0.647622        0.231272        0.373623
 H        -0.566929        0.680565        1.307358
 O         0.653289        0.048470       -1.187712
5
 generated by VMD
 N         0.509375        0.756487       -0.329033
 O         1.060014        1.568705        0.255102
 O        -0.681042        0.227451        0.387408
 H        -0.556031        0.768378        1.271475
 O         0.661514        0.041680       -1.204721
5
 generated by VMD
 N         0.522176        0.763176       -0.349173
 O         1.055771        1.575093        0.265989
 O        -0.713664        0.225963        0.402333
 H        -0.553156        0.840674        1.214826
 O         0.670439        0.033707       -1.224215
5
 generated by VMD
 N         0.533293        0.767663       -0.367632
 O         1.053097        1.583013        0.276720
 O        -0.745348        0.225889        0.418009
 H        -0.560835        0.891925        1.143583
 O         0.680312        0.025329       -1.246307
5
 generated by VMD
 N         0.541061        0.769295       -0.384044
 O         1.051435        1.591763        0.285631
 O        -0.774863        0.226993        0.433663
 H        -0.578634        0.929514        1.067549
 O         0.690521        0.017621       -1.270179
5
 generated by VMD
 N         0.545710        0.768406       -0.398842
 O         1.051294        1.600857        0.293052
 O        -0.802683        0.228396        0.449413
 H        -0.611608        0.965841        1.004033
 O         0.701142        0.010851       -1.293814
5
 generated by VMD
 N         0.547359        0.764303       -0.410724
 O         1.051734        1.610433        0.299021
 O        -0.828867        0.230404        0.462117
 H        -0.654295        1.009987        0.953463
 O         0.712890        0.005872       -1.317547
5
 generated by VMD
 N         0.547114        0.758281       -0.419762
 O         1.051356        1.619328        0.303141
 O        -0.852846        0.232340        0.472397
 H        -0.699859        1.061541        0.918249
 O         0.724901        0.002583       -1.339126
5
 generated by VMD
 N         0.545924        0.750512       -0.427555
 O         1.051326        1.627476        0.304651
 O        -0.875968        0.233879        0.479709
 H        -0.756448        1.111512        0.892957
 O         0.736264        0.001625       -1.358405
5
 generated by VMD
 N         0.543663        0.741218       -0.432624
 O         1.050867        1.633076        0.303324
 O        -0.896240        0.236714        0.486020
 H        -0.821380        1.157816        0.875896
 O         0.747667        0.003264       -1.376418
5
 generated by VMD
 N         0.540975        0.731337       -0.435931
 O         1.050625        1.637306        0.300021
 O        -0.914372        0.241739        0.491302
 H        -0.893745        1.191257        0.860242
 O         0.758416        0.005248       -1.392982
5
 generated by VMD
 N         0.538545        0.721841       -0.436822
 O         1.049515        1.639118        0.293512
 O        -0.930788        0.248318        0.495935
 H        -0.971712        1.204966        0.841443
 O         0.768404        0.008581       -1.407706
5
 generated by VMD
 N         0.535037        0.711906       -0.435283
 O         1.047601        1.637327        0.284629
 O        -0.945022        0.256567        0.499902
 H        -1.049643        1.198530        0.822392
 O         0.777521        0.014019       -1.420067
5
 generated by VMD
 N         0.531253        0.702338       -0.431796
 O         1.044923        1.633027        0.272053
 O        -0.957674        0.266872        0.503304
 H        -1.121341        1.180811        0.800950
 O         0.785702        0.021346       -1.429783
5
 generated by VMD
 N         0.527436        0.694034       -0.425724
 O         1.041409        1.625825        0.255539
 O        -0.968523        0.277458        0.505723
 H        -1.192611        1.158999        0.780229
 O         0.793001        0.030424       -1.437259
5
 generated by VMD
 N         0.522855        0.685094       -0.418749
 O         1.037609        1.616297        0.235855
 O        -0.977386        0.288216        0.507434
 H        -1.265121        1.147679        0.766164
 O         0.799726        0.041018       -1.441230
5
 generated by VMD
 N         0.518197        0.677025       -0.411454
 O         1.033020        1.605725        0.214114
 O        -0.985588        0.296967        0.507507
 H        -1.338060        1.152909        0.752550
 O         0.805538        0.053871       -1.443070
5
 generated by VMD
 N         0.515874        0.669306       -0.404041
 O         1.028192        1.592663        0.191515
 O        -0.991251        0.305094        0.505845
 H        -1.406391        1.167464        0.737455
 O         0.810255        0.067917       -1.441172
5
 generated by VMD
 N         0.513302        0.663733       -0.396641
 O         1.023436        1.579276        0.167677
 O        -0.995825        0.311671        0.502643
 H        -1.468978        1.181411        0.718832
 O         0.813798        0.084092       -1.437952
5
 generated by VMD
 N         0.510280        0.658253       -0.390051
 O         1.018677        1.565453        0.143072
 O        -1.000232        0.318099        0.498593
 H        -1.511313        1.183350        0.694804
 O         0.815954        0.101225       -1.431780
5
 generated by VMD
 N         0.506342        0.654245       -0.384950
 O         1.013565        1.551926        0.118614
 O        -1.003461        0.324644        0.493842
 H        -1.531982        1.170864        0.663220
 O         0.818099        0.119050       -1.423789
5
 generated by VMD
 N         0.502120        0.651493       -0.381429
 O         1.009168        1.539644        0.095476
 O        -1.006486        0.332182        0.488320
 H        -1.534110        1.148058        0.625389
 O         0.819161        0.136164       -1.413490
5
 generated by VMD
 N         0.496456        0.648173       -0.379792
 O         1.006186        1.530073        0.074704
 O        -1.008374        0.338478        0.482057
 H        -1.526430        1.126895        0.584205
 O         0.819474        0.152973       -1.403241
5
 generated by VMD
 N         0.488039        0.644859       -0.379724
 O         1.004036        1.522943        0.057507
 O        -1.008866        0.344429        0.474372
 H        -1.516552        1.119304        0.535759
 O         0.819395        0.167790       -1.392540
5
 generated by VMD
 N         0.477339        0.639651       -0.381826
 O         1.004130        1.519970        0.043764
 O        -1.007534        0.348769        0.466170
 H        -1.509570        1.137873        0.483321
 O         0.818358        0.179992       -1.382292
5
 generated by VMD
 N         0.464581        0.633878       -0.384435
 O         1.005012        1.520899        0.034543
 O        -1.005225        0.351249        0.456804
 H        -1.505168        1.179611        0.424270
 O         0.816196        0.189299       -1.373483
5
 generated by VMD
 N         0.449720        0.627942       -0.386909
 O         1.006572        1.526281        0.028957
 O        -1.001305        0.353284        0.447147
 H        -1.489531        1.225532        0.361920
 O         0.813282        0.193874       -1.367371
5
 generated by VMD
 N         0.433355        0.622616       -0.389718
 O         1.008702        1.534075        0.026922
 O        -0.997561        0.355266        0.436666
 H        -1.463619        1.259336        0.300007
 O         0.809507        0.194692       -1.364985
5
 generated by VMD
 N         0.416548        0.619636       -0.390936
 O         1.011017        1.545294        0.027719
 O        -0.993615        0.358030        0.424964
 H        -1.423051        1.274468        0.243246
 O         0.804958        0.191686       -1.365679
5
 generated by VMD
 N         0.399890        0.619703       -0.389698
 O         1.013070        1.557386        0.031556
 O        -0.988729        0.361668        0.411518
 H        -1.373054        1.272312        0.190176
 O         0.799491        0.184785       -1.368180
5
 generated by VMD
 N         0.384656        0.622994       -0.387603
 O         1.014039        1.570178        0.038773
 O        -0.983245        0.365725        0.397362
 H        -1.316305        1.256587        0.145008
 O         0.792352        0.174378       -1.372990
5
 generated by VMD
 N         0.370242        0.629901       -0.384580
 O         1.013300        1.583438        0.047036
 O        -0.977009        0.370705        0.382307
 H        -1.262384        1.233718        0.107991
 O         0.783956        0.160692       -1.379072
5
 generated by VMD
 N         0.357741        0.639319       -0.382530
 O         1.011477        1.596666        0.055464
 O        -0.969772        0.374624        0.365582
 H        -1.223245        1.222278        0.070456
 O         0.773423        0.145858       -1.384671
5
 generated by VMD
 N         0.348195        0.650650       -0.381566
 O         1.007624        1.608604        0.065181
 O        -0.960636        0.378691        0.348071
 H        -1.199102        1.230499        0.033258
 O         0.761338        0.130018       -1.389606
5
 generated by VMD
 N         0.341564        0.663170       -0.380311
 O         1.003318        1.619564        0.075398
 O        -0.949806        0.382456        0.329088
 H        -1.192716        1.253167       -0.001531
 O         0.748435        0.113324       -1.393862
5
 generated by VMD
 N         0.337500        0.677375       -0.379132
 O         0.997376        1.628199        0.085919
 O        -0.937068        0.386398        0.309076
 H        -1.201564        1.280145       -0.025549
 O         0.733488        0.095951       -1.397532
5
 generated by VMD
 N         0.337138        0.692162       -0.379516
 O         0.990637        1.636351        0.097188
 O        -0.922869        0.391179        0.287577
 H        -1.224290        1.301223       -0.041737
 O         0.717518        0.078427       -1.399575
5
 generated by VMD
 N         0.339945        0.707632       -0.380976
 O         0.981688        1.642489        0.107937
 O        -0.907684        0.397100        0.265292
 H        -1.255307        1.305278       -0.044647
 O         0.700648        0.061636       -1.400311
5
 generated by VMD
 N         0.346177        0.723369       -0.383917
 O         0.971790        1.647620        0.118277
 O        -0.892947        0.404841        0.242075
 H        -1.289716        1.288014       -0.031852
 O         0.681508        0.045953       -1.398208
5
 generated by VMD
 N         0.354583        0.737349       -0.389157
 O         0.960815        1.652068        0.128262
 O        -0.877994        0.413111        0.216870
 H        -1.327653        1.253940       -0.007351
 O         0.661204        0.031388       -1.393424
5
 generated by VMD
 N         0.363583        0.750678       -0.396535
 O         0.949408        1.655086        0.137614
 O        -0.862846        0.421613        0.191819
 H        -1.372477        1.214693        0.020765
 O         0.641045        0.018048       -1.386175
5
 generated by VMD
 N         0.373443        0.762128       -0.404453
 O         0.936737        1.656456        0.145684
 O        -0.848381        0.430334        0.166874
 H        -1.423608        1.180947        0.050619
 O         0.621099        0.006821       -1.377623
5
 generated by VMD
 N         0.382683        0.772064       -0.413198
 O         0.925220        1.657104        0.152541
 O        -0.833609        0.436991        0.141694
 H        -1.475576        1.154330        0.083902
 O         0.601801       -0.001917       -1.368925
5
 generated by VMD
 N         0.390440        0.780425       -0.423678
 O         0.913911        1.657248        0.157940
 O        -0.819062        0.442706        0.117162
 H        -1.525031        1.131464        0.119804
 O         0.583048       -0.008321       -1.359025
5
 generated by VMD
 N         0.395653        0.785428       -0.435384
 O         0.903274        1.657636        0.162685
 O        -0.807202        0.447061        0.093520
 H        -1.559768        1.115342        0.151485
 O         0.565509       -0.013462       -1.347197
5
 generated by VMD
 N         0.398172        0.789162       -0.448332
 O         0.894364        1.658093        0.167014
 O        -0.797561        0.450474        0.070079
 H        -1.577144        1.098059        0.177446
 O         0.549669       -0.016420       -1.336019
5
 generated by VMD
 N         0.397205        0.790460       -0.461183
 O         0.887486        1.658938        0.169585
 O        -0.791539        0.453670        0.047925
 H        -1.566841        1.078348        0.204027
 O         0.536311       -0.018264       -1.325243
5
 generated by VMD
 N         0.393986        0.791727       -0.474293
 O         0.882267        1.660134        0.170599
 O        -0.789473        0.456474        0.027548
 H        -1.535676        1.062084        0.227721
 O         0.524292       -0.019733       -1.315126
5
 generated by VMD
 N         0.387075        0.794130       -0.486078
 O         0.879815        1.661688        0.171173
 O        -0.791338        0.457509        0.009765
 H        -1.492844        1.055548        0.255540
 O         0.515289       -0.020504       -1.307846
5
 generated by VMD
 N         0.378110        0.796854       -0.494044
 O         0.878461        1.664179        0.170645
 O        -0.796248        0.457486       -0.006978
 H        -1.438978        1.065047        0.292285
 O         0.509298       -0.021532       -1.302503
5
 generated by VMD
 N         0.366619        0.799677       -0.500449
 O         0.879115        1.666189        0.169145
 O        -0.803559        0.455268       -0.022414
 H        -1.389270        1.097141        0.338650
 O         0.506966       -0.022902       -1.299665
5
 generated by VMD
 N         0.353733        0.803977       -0.504715
 O         0.879705        1.668091        0.165862
 O        -0.813939        0.450478       -0.036908
 H        -1.338780        1.148933        0.391251
 O         0.508220       -0.024337       -1.300009
5
 generated by VMD
 N         0.339935        0.809191       -0.506430
 O         0.882111        1.669768        0.161785
 O        -0.827328        0.445205       -0.049310
 H        -1.277001        1.207446        0.446617
 O         0.512448       -0.027382       -1.304075
5
 generated by VMD
 N         0.325219        0.813800       -0.505075
 O         0.885487        1.671299        0.156404
 O        -0.844626        0.441862       -0.059463
 H        -1.201669        1.257421        0.496927
 O         0.520810       -0.029922       -1.310431
5
 generated by VMD
 N         0.311235        0.818009       -0.502287
 O         0.888645        1.672959        0.151068
 O        -0.865478        0.440932       -0.067377
 H        -1.116431        1.284514        0.538981
 O         0.531730       -0.032640       -1.319125
5
 generated by VMD
 N         0.297905        0.820885       -0.498380
 O         0.891131        1.674760        0.144478
 O        -0.888903        0.443583       -0.072575
 H        -1.032612        1.281310        0.563754
 O         0.543565       -0.034193       -1.327916
5
 generated by VMD
 N         0.286171        0.820675       -0.494464
 O         0.893279        1.676398        0.136198
 O        -0.913784        0.449566       -0.075176
 H        -0.951069        1.252113        0.576813
 O         0.557006       -0.034386       -1.337075
5
 generated by VMD
 N         0.276038        0.817417       -0.490522
 O         0.893888        1.677766        0.126282
 O        -0.939213        0.459298       -0.075382
 H        -0.881905        1.205174        0.585392
 O         0.571571       -0.033407       -1.345365
5
 generated by VMD
 N         0.266924        0.810012       -0.487584
 O         0.893454        1.678879        0.116234
 O        -0.964331        0.470485       -0.073753
 H        -0.833211        1.150522        0.600064
 O         0.587867       -0.030521       -1.352945
5
 generated by VMD
 N         0.259675        0.799220       -0.486622
 O         0.892123        1.678778        0.105168
 O        -0.989125        0.482588       -0.070953
 H        -0.806888        1.099857        0.630672
 O         0.604182       -0.026181       -1.359532
5
 generated by VMD
 N         0.255641        0.786271       -0.487895
 O         0.890126        1.677395        0.092962
 O        -1.012898        0.496451       -0.068334
 H        -0.801140        1.058221        0.679779
 O         0.621034       -0.019819       -1.365359
5
 generated by VMD
 N         0.254461        0.771133       -0.491288
 O         0.886655        1.675007        0.079086
 O        -1.035855        0.511091       -0.066133
 H        -0.814190        1.017221        0.746256
 O         0.638072       -0.012653       -1.370244
5
 generated by VMD
 N         0.256027        0.754440       -0.497041
 O         0.882577        1.672373        0.063508
 O        -1.058690        0.526239       -0.064192
 H        -0.847975        0.975524        0.824480
 O         0.655461       -0.004319       -1.373064
5
 generated by VMD
 N         0.258952        0.738203       -0.505296
 O         0.876782        1.669278        0.047361
 O        -1.080102        0.541648       -0.061283
 H        -0.896077        0.927915        0.889994
 O         0.672625        0.005260       -1.374421
5
 generated by VMD
 N         0.263090        0.722873       -0.515230
 O         0.870651        1.665964        0.030660
 O        -1.100756        0.558438       -0.056621
 H        -0.953119        0.872423        0.931039
 O         0.690065        0.015948       -1.374747
5
 generated by VMD
 N         0.268586        0.709273       -0.525141
 O         0.863976        1.660841        0.013239
 O        -1.119552        0.575322       -0.051279
 H        -1.014892        0.811228        0.945052
 O         0.706037        0.026380       -1.375551
