2
 generated by VMD
 O         3.319043       -3.444226       -3.481324
 O         3.154373       -2.536592       -2.586324
2
 generated by VMD
 O         3.309835       -3.431005       -3.475037
 O         3.147987       -2.673265       -2.567741
2
 generated by VMD
 O         3.292143       -3.415613       -3.464540
 O         3.133770       -2.812195       -2.550838
2
 generated by VMD
 O         3.279124       -3.401581       -3.455454
 O         3.110813       -2.950874       -2.514814
2
 generated by VMD
 O         3.256207       -3.396080       -3.453787
 O         3.086698       -3.089066       -2.469932
2
 generated by VMD
 O         3.231193       -3.386750       -3.461317
 O         3.059190       -3.227771       -2.412892
2
 generated by VMD
 O         3.204076       -3.375487       -3.480047
 O         3.029050       -3.362425       -2.344437
2
 generated by VMD
 O         3.173939       -3.370263       -3.496481
 O         2.999049       -3.494678       -2.275111
2
 generated by VMD
 O         3.148241       -3.371353       -3.509993
 O         2.966349       -3.632322       -2.209019
2
 generated by VMD
 O         3.106822       -3.378490       -3.516170
 O         2.934147       -3.784315       -2.150800
2
 generated by VMD
 O         3.062422       -3.389140       -3.514917
 O         2.903849       -3.938662       -2.102213
2
 generated by VMD
 O         3.021292       -3.407172       -3.509512
 O         2.874991       -4.079123       -2.061308
2
 generated by VMD
 O         2.985299       -3.425171       -3.492571
 O         2.856506       -4.216202       -2.024848
2
 generated by VMD
 O         2.952313       -3.438309       -3.477027
 O         2.830985       -4.355050       -1.988924
2
 generated by VMD
 O         2.913580       -3.446698       -3.451456
 O         2.806582       -4.482351       -1.955695
2
 generated by VMD
 O         2.875049       -3.450493       -3.418720
 O         2.783214       -4.604358       -1.929055
2
 generated by VMD
 O         2.827191       -3.455647       -3.375793
 O         2.757926       -4.717113       -1.903339
2
 generated by VMD
 O         2.782324       -3.453883       -3.330037
 O         2.725789       -4.820255       -1.881225
2
 generated by VMD
 O         2.741863       -3.449606       -3.282387
 O         2.688971       -4.920432       -1.858920
2
 generated by VMD
 O         2.697491       -3.449525       -3.237700
 O         2.651279       -5.002878       -1.847910
2
 generated by VMD
 O         2.651786       -3.446067       -3.190982
 O         2.612926       -5.079843       -1.839991
2
 generated by VMD
 O         2.609345       -3.446119       -3.146193
 O         2.571942       -5.151149       -1.830588
2
 generated by VMD
 O         2.568804       -3.455647       -3.101763
 O         2.534781       -5.210401       -1.816396
2
 generated by VMD
 O         2.532040       -3.465766       -3.059862
 O         2.493251       -5.260948       -1.802016
2
 generated by VMD
 O         2.500597       -3.483003       -3.023322
 O         2.447175       -5.302444       -1.796954
2
 generated by VMD
 O         2.472215       -3.507422       -2.988785
 O         2.403587       -5.328634       -1.794351
2
 generated by VMD
 O         2.443773       -3.532192       -2.947714
 O         2.361010       -5.341909       -1.785762
2
 generated by VMD
 O         2.420983       -3.554785       -2.902581
 O         2.314589       -5.339550       -1.779162
2
 generated by VMD
 O         2.399642       -3.576626       -2.856923
 O         2.265057       -5.323606       -1.777361
2
 generated by VMD
 O         2.381644       -3.594213       -2.807431
 O         2.208721       -5.298895       -1.780175
2
 generated by VMD
 O         2.367662       -3.615079       -2.766054
 O         2.148119       -5.268921       -1.785529
2
 generated by VMD
 O         2.356998       -3.638966       -2.714384
 O         2.083457       -5.234384       -1.792583
2
 generated by VMD
 O         2.344031       -3.659893       -2.653499
 O         2.020986       -5.195631       -1.801271
2
 generated by VMD
 O         2.330888       -3.686990       -2.587129
 O         1.954389       -5.145965       -1.811310
2
 generated by VMD
 O         2.314754       -3.720908       -2.516695
 O         1.890383       -5.085338       -1.815129
2
 generated by VMD
 O         2.297411       -3.767492       -2.438958
 O         1.824044       -5.015305       -1.821021
2
 generated by VMD
 O         2.284694       -3.824588       -2.348472
 O         1.770397       -4.945651       -1.821869
2
 generated by VMD
 O         2.266978       -3.891551       -2.248084
 O         1.720150       -4.875829       -1.823291
2
 generated by VMD
 O         2.246614       -3.951735       -2.149053
 O         1.674088       -4.802332       -1.833515
2
 generated by VMD
 O         2.233871       -4.007453       -2.052027
 O         1.618134       -4.733874       -1.832687
2
 generated by VMD
 O         2.238690       -4.042390       -1.955902
 O         1.542903       -4.684377       -1.823920
2
 generated by VMD
 O         2.271449       -4.055688       -1.868631
 O         1.447806       -4.648939       -1.815593
2
 generated by VMD
 O         2.317550       -4.059139       -1.787711
 O         1.338455       -4.622267       -1.799923
2
 generated by VMD
 O         2.365093       -4.055760       -1.703999
 O         1.233400       -4.598624       -1.784493
2
 generated by VMD
 O         2.414001       -4.051908       -1.621617
 O         1.130313       -4.577448       -1.776999
2
 generated by VMD
 O         2.457471       -4.049388       -1.527172
 O         1.033068       -4.559605       -1.770402
2
 generated by VMD
 O         2.491492       -4.043872       -1.442484
 O         0.940910       -4.536059       -1.755911
2
 generated by VMD
 O         2.516557       -4.040735       -1.359278
 O         0.855234       -4.506822       -1.742397
2
 generated by VMD
 O         2.537832       -4.026354       -1.278114
 O         0.772613       -4.474279       -1.719531
2
 generated by VMD
 O         2.547180       -4.014544       -1.190461
 O         0.692051       -4.443335       -1.701659
2
 generated by VMD
 O         2.559418       -4.014580       -1.107081
 O         0.608637       -4.413245       -1.681147
2
 generated by VMD
 O         2.566026       -4.015594       -1.021472
 O         0.530408       -4.379474       -1.663382
2
 generated by VMD
 O         2.570749       -4.026178       -0.941524
 O         0.455388       -4.352216       -1.645392
2
 generated by VMD
 O         2.572608       -4.043723       -0.854292
 O         0.390624       -4.323242       -1.621982
2
 generated by VMD
 O         2.569531       -4.053516       -0.767540
 O         0.325257       -4.302646       -1.606926
2
 generated by VMD
 O         2.566291       -4.057931       -0.682171
 O         0.259217       -4.277540       -1.589963
2
 generated by VMD
 O         2.555184       -4.053585       -0.595428
 O         0.194613       -4.252483       -1.579453
2
 generated by VMD
 O         2.542756       -4.060701       -0.519359
 O         0.133520       -4.233255       -1.564580
2
 generated by VMD
 O         2.530966       -4.070091       -0.444644
 O         0.077033       -4.220642       -1.551257
2
 generated by VMD
 O         2.523571       -4.080686       -0.379364
 O         0.017209       -4.212152       -1.538241
2
 generated by VMD
 O         2.518208       -4.099312       -0.314996
 O        -0.044337       -4.202001       -1.519044
2
 generated by VMD
 O         2.509219       -4.118187       -0.256852
 O        -0.100276       -4.189646       -1.488348
2
 generated by VMD
 O         2.506464       -4.144151       -0.193961
 O        -0.153753       -4.176468       -1.451035
2
 generated by VMD
 O         2.510584       -4.172589       -0.131530
 O        -0.208722       -4.166450       -1.406341
2
 generated by VMD
 O         2.513123       -4.202476       -0.061904
 O        -0.267167       -4.163778       -1.364589
2
 generated by VMD
 O         2.514561       -4.239655        0.013969
 O        -0.332632       -4.156475       -1.325858
2
 generated by VMD
 O         2.524248       -4.276713        0.093474
 O        -0.397978       -4.153547       -1.288242
2
 generated by VMD
 O         2.535299       -4.312500        0.178253
 O        -0.464421       -4.149913       -1.253253
2
 generated by VMD
 O         2.542346       -4.342436        0.270589
 O        -0.524609       -4.148516       -1.221742
2
 generated by VMD
 O         2.549915       -4.378984        0.367748
 O        -0.577552       -4.148707       -1.186852
2
 generated by VMD
 O         2.560456       -4.412131        0.464753
 O        -0.633898       -4.140515       -1.153136
2
 generated by VMD
 O         2.566446       -4.445995        0.552730
 O        -0.691158       -4.132805       -1.124318
2
 generated by VMD
 O         2.567986       -4.474720        0.640021
 O        -0.754227       -4.124301       -1.097825
2
 generated by VMD
 O         2.571525       -4.510372        0.721022
 O        -0.815714       -4.115989       -1.071674
2
 generated by VMD
 O         2.585186       -4.542071        0.793606
 O        -0.879744       -4.106159       -1.045633
2
 generated by VMD
 O         2.601520       -4.568422        0.872782
 O        -0.943405       -4.092811       -1.012079
2
 generated by VMD
 O         2.616784       -4.597969        0.941686
 O        -1.007577       -4.083766       -0.982281
2
 generated by VMD
 O         2.627369       -4.627879        1.009647
 O        -1.070710       -4.072956       -0.954890
2
 generated by VMD
 O         2.631811       -4.665803        1.078353
 O        -1.137590       -4.064171       -0.934253
2
 generated by VMD
 O         2.628830       -4.705164        1.144252
 O        -1.202544       -4.054507       -0.925200
2
 generated by VMD
 O         2.624623       -4.738625        1.210543
 O        -1.263818       -4.040730       -0.911670
2
 generated by VMD
 O         2.616452       -4.762800        1.275647
 O        -1.330661       -4.028196       -0.900511
2
 generated by VMD
 O         2.604586       -4.792797        1.343378
 O        -1.397357       -4.019466       -0.886472
2
 generated by VMD
 O         2.579298       -4.823222        1.416389
 O        -1.463925       -4.010857       -0.866121
2
 generated by VMD
 O         2.559655       -4.852336        1.485387
 O        -1.530587       -3.994447       -0.838292
2
 generated by VMD
 O         2.537736       -4.875489        1.554397
 O        -1.596424       -3.980037       -0.818010
2
 generated by VMD
 O         2.514178       -4.903929        1.618307
 O        -1.660247       -3.960941       -0.797931
2
 generated by VMD
 O         2.486897       -4.928957        1.685582
 O        -1.721014       -3.936754       -0.775840
2
 generated by VMD
 O         2.458570       -4.948275        1.752871
 O        -1.773069       -3.904729       -0.753029
2
 generated by VMD
 O         2.429055       -4.964700        1.816008
 O        -1.822759       -3.872538       -0.720676
2
 generated by VMD
 O         2.395652       -4.974772        1.878293
 O        -1.865685       -3.845351       -0.691093
2
 generated by VMD
 O         2.365562       -4.980598        1.950760
 O        -1.909011       -3.826186       -0.667177
2
 generated by VMD
 O         2.336610       -4.974256        2.020637
 O        -1.950615       -3.809309       -0.643886
2
 generated by VMD
 O         2.302964       -4.974628        2.087864
 O        -1.989376       -3.798472       -0.616674
2
 generated by VMD
 O         2.256155       -4.972845        2.154844
 O        -2.026563       -3.781253       -0.585081
2
 generated by VMD
 O         2.208086       -4.972175        2.217313
 O        -2.059819       -3.757447       -0.554340
2
 generated by VMD
 O         2.163483       -4.968828        2.276010
 O        -2.095038       -3.733656       -0.527093
